[08/20/2024 21:25]  System: WorldMap loading...
[08/20/2024 21:25]  System: Loading WorldMap markers..
[08/20/2024 21:25]  System: ..Banks_and_Healers.xml (39)
[08/20/2024 21:25]  System: ..Dungeons.xml (13)
[08/20/2024 21:25]  System: ..Dungeon_Gates.xml (388)
[08/20/2024 21:25]  System: ..Healer_Caravans.xml (42)
[08/20/2024 21:25]  System: ..Kings_Faire.xml (43)
[08/20/2024 21:25]  System: ..Moongates.xml (10)
[08/20/2024 21:25]  System: ..POI.xml (251)
[08/20/2024 21:25]  System: ..PvP_Locations.xml (71)
[08/20/2024 21:25]  System: ..Shrines.xml (9)
[08/20/2024 21:25]  System: ..Sub-Dungeons.xml (4)
[08/20/2024 21:25]  System: ..Townships.xml (10)
[08/20/2024 21:25]  System: ..UOAM_Atlas.xml (1887)
[08/20/2024 21:25]  System: ..UOAM_T-Map.xml (255)
[08/20/2024 21:25]  System: ..UOAM_Treasure.xml (523)
[08/20/2024 21:25]  System: WorldMap markers loaded (3545)
[08/20/2024 21:25]  System: Welcome Ailiin!
[08/20/2024 21:25]  Urzula: An Lor Xen
[08/20/2024 21:25]  Ailiin: Ailiin (Young)
[08/20/2024 21:25]  a wounded harpy: a wounded harpy
[08/20/2024 21:25]  a giant bat: a giant bat
[08/20/2024 21:25]  Frel: Legendary Pirate
[08/20/2024 21:25]  Frel: [FS!]
[08/20/2024 21:25]  Frel: Frel
[08/20/2024 21:25]  Castello: [Private, gLc]
[08/20/2024 21:25]  Castello: Lord Castello
[08/20/2024 21:25]  Maguinho Lixero: [Runner, PKs]
[08/20/2024 21:25]  Maguinho Lixero: Maguinho Lixero
[08/20/2024 21:25]  Mr.Dracula: Boss Slayer
[08/20/2024 21:25]  Mr.Dracula: [CN]
[08/20/2024 21:25]  Mr.Dracula: Lady Mr.Dracula
[08/20/2024 21:25]  a gravebug: (bonded)
[08/20/2024 21:25]  a gravebug: a gravebug
[08/20/2024 21:25]  Ostrich Helper: Legendary Wizard
[08/20/2024 21:25]  Ostrich Helper: [remove, user]
[08/20/2024 21:25]  Ostrich Helper: Lady Ostrich Helper
[08/20/2024 21:25]  Remi Locke: Remi Locke
[08/20/2024 21:25]  Dr.Dunna: Legendary Boss Slayer
[08/20/2024 21:25]  Dr.Dunna: Lord Dr.Dunna
[08/20/2024 21:25]  insPC: insPC
[08/20/2024 21:25]  a gravebug: (bonded)
[08/20/2024 21:25]  a gravebug: a gravebug
[08/20/2024 21:25]  Leide: Legendary Tailor
[08/20/2024 21:25]  Leide: [Recruit, EVIL]
[08/20/2024 21:25]  Leide: Lady Leide
[08/20/2024 21:25]  Dark Dalk: [Loyal, NKB]
[08/20/2024 21:25]  Dark Dalk: Dark Dalk
[08/20/2024 21:25]  a water elemental: (summoned)
[08/20/2024 21:25]  a water elemental: a water elemental
[08/20/2024 21:25]  Warner the Watch: [Knight, Sir.]
[08/20/2024 21:25]  Warner the Watch: Warner the Watch
[08/20/2024 21:25]  Passaconaway: Passaconaway (Young)
[08/20/2024 21:25]  a horse: (tame)
[08/20/2024 21:25]  a horse: a horse
[08/20/2024 21:25]  a forest ostard: (bonded)
[08/20/2024 21:25]  a forest ostard: a forest ostard
[08/20/2024 21:25]  Barry McKochner: [Druid, BEAR]
[08/20/2024 21:25]  Barry McKochner: Barry McKochner
[08/20/2024 21:25]  LeArke: LeArke
[08/20/2024 21:25]  Apex Apox Aprix: Apex Apox Aprix (Young)
[08/20/2024 21:25]  Amarante: Amarante
[08/20/2024 21:25]  Tyrane: Tyrane (Young)
[08/20/2024 21:25]  BalBowa: BalBowa (Young)
[08/20/2024 21:25]  an undead miner: an undead miner (Young)
[08/20/2024 21:25]  Urzula: [The Tavern], [tT]
[08/20/2024 21:25]  Urzula: Urzula
[08/20/2024 21:25]  Chicco Gatto: Alchemist
[08/20/2024 21:25]  Chicco Gatto: [Normal Progressing, -_-]
[08/20/2024 21:25]  Chicco Gatto: Lord Chicco Gatto
[08/20/2024 21:25]  You see: a mongbat corpse
[08/20/2024 21:25]  You see: a giant rat corpse
[08/20/2024 21:25]  You see: a mongbat corpse
[08/20/2024 21:25]  You see: a mongbat corpse
[08/20/2024 21:25]  You see: a mongbat corpse
[08/20/2024 21:25]  You see: a mongbat corpse
[08/20/2024 21:25]  You see: a mongbat corpse
[08/20/2024 21:25]  You see: a mongbat corpse
[08/20/2024 21:25]  You see: the remains of Mavis Meow
[08/20/2024 21:25]  You see: a skeletal corpse
[08/20/2024 21:25]  You see: a mongbat corpse
[08/20/2024 21:25]  You see: a mongbat corpse
[08/20/2024 21:25]  You see: a mongbat corpse
[08/20/2024 21:25]  You see: a mongbat corpse
[08/20/2024 21:25]  You see: a mongbat corpse
[08/20/2024 21:25]  You see: a mongbat corpse
[08/20/2024 21:25]  System: WorldMap loaded!
[08/20/2024 21:25]  Tyrane: An Lor Xen
[08/20/2024 21:25]  [Razor]: Finished 3 queued actions in 2.4 seconds.
[08/20/2024 21:25]  Urzula: [The Tavern], [tT]
[08/20/2024 21:25]  Urzula: Urzula
[08/20/2024 21:25]  a gravebug: *devours corpse*
[08/20/2024 21:25]  MyFactionChar: MyFactionChar (Young)
[08/20/2024 21:25]  Tyrane: Tyrane (Young)
[08/20/2024 21:25]  Kadge: Kadge (Young)
[08/20/2024 21:25]  Vegeir: Vegeir (Young)
[08/20/2024 21:25]  Newdie: Newdie (Young)
[08/20/2024 21:25]  Tyrane: An Lor Xen
[08/20/2024 21:25]  Kirier Merilla: Kirier Merilla (Young)
[08/20/2024 21:25]  Warner the Watch: *area taunt*
[08/20/2024 21:25]  a black bear: (summoned)
[08/20/2024 21:25]  a black bear: a black bear
[08/20/2024 21:25]  Tyrane: Tyrane (Young)
[08/20/2024 21:25]  a gravebug: *devours corpse*
[08/20/2024 21:25]  Castello: a water elemental release
[08/20/2024 21:25]  Castello: Kal Vas Xen An Flam
[08/20/2024 21:25]  Urzula: An Lor Xen
[08/20/2024 21:26]  shallow water: (summoned)
[08/20/2024 21:26]  shallow water: shallow water
[08/20/2024 21:26]  Urzula: An Lor Xen
[08/20/2024 21:26]  Urzula: [The Tavern], [tT]
[08/20/2024 21:26]  Urzula: Urzula
[08/20/2024 21:26]  a water elemental: (summoned)
[08/20/2024 21:26]  a water elemental: a water elemental
[08/20/2024 21:26]  Castello: a water elemental release
[08/20/2024 21:26]  Castello: Kal Vas Xen An Flam
[08/20/2024 21:26]  Tyrane: An Lor Xen
[08/20/2024 21:26]  Urzula: [The Tavern], [tT]
[08/20/2024 21:26]  Urzula: Urzula
[08/20/2024 21:26]  FrancisZhou: FrancisZhou
[08/20/2024 21:26]  Ashley Stabah: Ashley Stabah
[08/20/2024 21:26]  Tyrane: An Lor Xen
[08/20/2024 21:26]  Tyrane: Tyrane (Young)
[08/20/2024 21:26]  a gravebug: *devours corpse*
[08/20/2024 21:26]  TwoFlames: TwoFlames
[08/20/2024 21:26]  a water elemental: (summoned)
[08/20/2024 21:26]  a water elemental: a water elemental
[08/20/2024 21:26]  a brown bear: (summoned)
[08/20/2024 21:26]  a brown bear: a brown bear
[08/20/2024 21:26]  Warner the Watch: *area taunt*
[08/20/2024 21:26]  Tyrane: Tyrane (Young)
[08/20/2024 21:26]  a polar bear: (summoned)
[08/20/2024 21:26]  a polar bear: a polar bear
[08/20/2024 21:26]  Tyrane: An Lor Xen
[08/20/2024 21:26]  Tyrane: Tyrane (Young)
[08/20/2024 21:26]  Newdie: Newdie (Young)
[08/20/2024 21:26]  a gravebug: *devours corpse*
[08/20/2024 21:26]  Mavis Meow: Mavis Meow (Young)
[08/20/2024 21:26]  a primordial whelp: (summoned)
[08/20/2024 21:26]  a primordial whelp: a primordial whelp
[08/20/2024 21:26]  Urzula: An Lor Xen
[08/20/2024 21:26]  Warner the Watch: *area taunt*
[08/20/2024 21:26]  Urzula: An Lor Xen
[08/20/2024 21:26]  Urzula: [The Tavern], [tT]
[08/20/2024 21:26]  Urzula: Urzula
[08/20/2024 21:26]  Vegeir: Vegeir (Young)
[08/20/2024 21:26]  Bumblepops: Bumblepops
[08/20/2024 21:26]  Afsky: Afsky
[08/20/2024 21:26]  deep heat: deep heat
[08/20/2024 21:26]  Tyrane: An Lor Xen
[08/20/2024 21:26]  Urzula: An Lor Xen
[08/20/2024 21:26]  Tyrane: Tyrane (Young)
[08/20/2024 21:26]  Urzula: An Lor Xen
[08/20/2024 21:26]  Urzula: [The Tavern], [tT]
[08/20/2024 21:26]  Urzula: Urzula
[08/20/2024 21:26]  System: Pumpkinhead' has completed the achievement: Savant (Epic).
[08/20/2024 21:26]  Urzula: An Lor Xen
[08/20/2024 21:26]  Urzula: [The Tavern], [tT]
[08/20/2024 21:26]  Urzula: Urzula
[08/20/2024 21:26]  a gravebug: *devours corpse*
[08/20/2024 21:26]  a mongbat: a mongbat
[08/20/2024 21:26]  Afsky: Por Ort Grav
[08/20/2024 21:26]  Vigarista: [Runner, PKs]
[08/20/2024 21:26]  Vigarista: Vigarista
[08/20/2024 21:26]  Urzula: An Lor Xen
[08/20/2024 21:26]  System: Your campfire is now secure.
[08/20/2024 21:26]  System: Your campfire is now secure.
[08/20/2024 21:26]  Urzula: [The Tavern], [tT]
[08/20/2024 21:26]  Urzula: Urzula
[08/20/2024 21:26]  Newdie: Newdie (Young)
[08/20/2024 21:26]  Tyrane: An Lor Xen
[08/20/2024 21:26]  Ailiin: The food is scarcely edible (measly).
[08/20/2024 21:26]  Warner the Watch: *area taunt*
[08/20/2024 21:26]  Tyrane: An Lor Xen
[08/20/2024 21:26]  Tyrane: An Lor Xen
[08/20/2024 21:26]  Afsky: Por Ort Grav
[08/20/2024 21:26]  You see: bard codex
[08/20/2024 21:26]  You see: [blessed]
[08/20/2024 21:26]  a gravebug: *devours corpse*
[08/20/2024 21:26]  You see: a mongbat corpse
[08/20/2024 21:26]  Tyrane: An Lor Xen
[08/20/2024 21:26]  Tenllun: Tenllun
[08/20/2024 21:26]  Tyrane: An Lor Xen
[08/20/2024 21:26]  Chimmy: Transmuter
[08/20/2024 21:26]  Chimmy: Chimmy
[08/20/2024 21:26]  Afsky: In Vas Mani
[08/20/2024 21:27]  You see: a mongbat corpse
[08/20/2024 21:27]  Afsky: In Vas Mani
[08/20/2024 21:27]  Castello: a water elemental release
[08/20/2024 21:27]  Castello: Kal Vas Xen An Flam
[08/20/2024 21:27]  Tyrane: An Lor Xen
[08/20/2024 21:27]  Mavis Meow: Mavis Meow (Young)
[08/20/2024 21:27]  Afsky: In Vas Mani
[08/20/2024 21:27]  Warner the Watch: *area taunt*
[08/20/2024 21:27]  Urzula: An Lor Xen
[08/20/2024 21:27]  Tyrane: An Lor Xen
[08/20/2024 21:27]  Afsky: In Vas Mani
[08/20/2024 21:27]  Newdie: Newdie (Young)
[08/20/2024 21:27]  a water elemental: (summoned)
[08/20/2024 21:27]  a water elemental: a water elemental
[08/20/2024 21:27]  Castello: a water elemental release
[08/20/2024 21:27]  Castello: Kal Vas Xen An Flam
[08/20/2024 21:27]  Urzula: An Lor Xen
[08/20/2024 21:27]  Urzula: [The Tavern], [tT]
[08/20/2024 21:27]  Urzula: Urzula
[08/20/2024 21:27]  a gravebug: *devours corpse*
[08/20/2024 21:27]  Tyrane: An Lor Xen
[08/20/2024 21:27]  Afsky: In Vas Mani
[08/20/2024 21:27]  System: Ludwig Von Mises has completed the achievement: Artisan (Basic).
[08/20/2024 21:27]  Urzula: An Lor Xen
[08/20/2024 21:27]  Afsky: In Vas Mani
[08/20/2024 21:27]  a water elemental: (summoned)
[08/20/2024 21:27]  a water elemental: a water elemental
[08/20/2024 21:27]  Urzula: An Lor Xen
[08/20/2024 21:27]  Afsky: Por Ort Grav
[08/20/2024 21:27]  Urzula: An Lor Xen
[08/20/2024 21:27]  Afsky: In Vas Mani
[08/20/2024 21:27]  Urzula: An Lor Xen
[08/20/2024 21:27]  Urzula: [The Tavern], [tT]
[08/20/2024 21:27]  Urzula: Urzula
[08/20/2024 21:27]  Afsky: In Vas Mani
[08/20/2024 21:27]  Urzula: [The Tavern], [tT]
[08/20/2024 21:27]  Urzula: Urzula
[08/20/2024 21:27]  Warner the Watch: *area taunt*
[08/20/2024 21:27]  Afsky: In Vas Mani
[08/20/2024 21:27]  a mongbat: a mongbat
[08/20/2024 21:27]  You see: a mongbat corpse
[08/20/2024 21:27]  Afsky: In Vas Mani
[08/20/2024 21:27]  Afsky: In Vas Mani
[08/20/2024 21:27]  Newdie: Newdie (Young)
[08/20/2024 21:27]  Afsky: In Vas Mani
[08/20/2024 21:27]  Afsky: In Vas Mani
[08/20/2024 21:27]  a mongbat: a mongbat
[08/20/2024 21:27]  Afsky: Por Ort Grav
[08/20/2024 21:27]  Warner the Watch: *area taunt*
[08/20/2024 21:27]  You see: a mongbat corpse
[08/20/2024 21:27]  Afsky: In Vas Mani
[08/20/2024 21:27]  System: Lillian Petal has completed the achievement: Connoisseur (Advanced).
[08/20/2024 21:27]  Castello: a water elemental release
[08/20/2024 21:27]  Castello: Kal Vas Xen An Flam
[08/20/2024 21:27]  You see: a mongbat corpse
[08/20/2024 21:27]  Urzula: An Lor Xen
[08/20/2024 21:27]  Afsky: In Vas Mani
[08/20/2024 21:27]  Ashley Stabah: Ashley Stabah
[08/20/2024 21:27]  Afsky: In Vas Mani
[08/20/2024 21:27]  Urzula: An Lor Xen
[08/20/2024 21:27]  Urzula: [The Tavern], [tT]
[08/20/2024 21:27]  Urzula: Urzula
[08/20/2024 21:27]  a water elemental: (summoned)
[08/20/2024 21:27]  a water elemental: a water elemental
[08/20/2024 21:27]  Castello: a water elemental release
[08/20/2024 21:27]  Castello: Kal Vas Xen An Flam
[08/20/2024 21:27]  Afsky: In Vas Mani
[08/20/2024 21:27]  Vegeir: Vegeir (Young)
[08/20/2024 21:27]  Urzula: An Lor Xen
[08/20/2024 21:27]  Urzula: [The Tavern], [tT]
[08/20/2024 21:27]  Urzula: Urzula
[08/20/2024 21:27]  Newdie: Newdie (Young)
[08/20/2024 21:27]  Afsky: In Vas Mani
[08/20/2024 21:27]  Urzula: [The Tavern], [tT]
[08/20/2024 21:27]  Urzula: Urzula
[08/20/2024 21:27]  a water elemental: (summoned)
[08/20/2024 21:27]  a water elemental: a water elemental
[08/20/2024 21:27]  Afsky: In Vas Mani
[08/20/2024 21:27]  Chimmy: Transmuter
[08/20/2024 21:27]  Chimmy: Chimmy
[08/20/2024 21:27]  Castello: a water elemental release
[08/20/2024 21:27]  Castello: Kal Vas Xen An Flam
[08/20/2024 21:27]  Afsky: In Vas Mani
[08/20/2024 21:27]  Afsky: In Vas Mani
[08/20/2024 21:27]  Warner the Watch: *area taunt*
[08/20/2024 21:28]  a water elemental: (summoned)
[08/20/2024 21:28]  a water elemental: a water elemental
[08/20/2024 21:28]  Castello: a water elemental release
[08/20/2024 21:28]  Castello: Kal Vas Xen An Flam
[08/20/2024 21:28]  Warner the Watch: Be thou blessed by the Virtues
[08/20/2024 21:28]  Afsky: Por Ort Grav
[08/20/2024 21:28]  System: Sursa has completed the achievement: Guardian of Shadowspire (Basic).
[08/20/2024 21:28]  Penta Zero Miedo: Penta Zero Miedo
[08/20/2024 21:28]  a water elemental: (summoned)
[08/20/2024 21:28]  a water elemental: a water elemental
[08/20/2024 21:28]  Afsky: In Vas Mani
[08/20/2024 21:28]  Afsky: In Vas Mani
[08/20/2024 21:28]  Afsky: In Vas Mani
[08/20/2024 21:28]  Afsky: In Vas Mani
[08/20/2024 21:28]  Vigarista: [Runner, PKs]
[08/20/2024 21:28]  Vigarista: Vigarista
[08/20/2024 21:28]  Urzula: An Lor Xen
[08/20/2024 21:28]  Afsky: In Vas Mani
[08/20/2024 21:28]  Urzula: An Lor Xen
[08/20/2024 21:28]  Urzula: [The Tavern], [tT]
[08/20/2024 21:28]  Urzula: Urzula
[08/20/2024 21:28]  Warner the Watch: *area taunt*
[08/20/2024 21:28]  Afsky: In Vas Mani
[08/20/2024 21:28]  Urzula: [The Tavern], [tT]
[08/20/2024 21:28]  Urzula: Urzula
[08/20/2024 21:28]  MyFactionChar: MyFactionChar (Young)
[08/20/2024 21:28]  Afsky: In Vas Mani
[08/20/2024 21:28]  Afsky: In Vas Mani
[08/20/2024 21:28]  Newdie: Newdie (Young)
[08/20/2024 21:28]  Afsky: In Vas Mani
[08/20/2024 21:28]  Arteus: [Recruit, KAW]
[08/20/2024 21:28]  Arteus: Arteus
[08/20/2024 21:28]  Afsky: Por Ort Grav
[08/20/2024 21:28]  Afsky: In Vas Mani
[08/20/2024 21:28]  Warner the Watch: *area taunt*
[08/20/2024 21:28]  a giant bat: a giant bat
[08/20/2024 21:28]  Castello: a water elemental release
[08/20/2024 21:28]  Castello: Kal Vas Xen An Flam
[08/20/2024 21:28]  Afsky: In Vas Mani
[08/20/2024 21:28]  Afsky: In Vas Mani
[08/20/2024 21:28]  a water elemental: (summoned)
[08/20/2024 21:28]  a water elemental: a water elemental
[08/20/2024 21:28]  Tenllun: Tenllun
[08/20/2024 21:28]  Castello: a water elemental release
[08/20/2024 21:28]  Urzula: An Lor Xen
[08/20/2024 21:28]  Afsky: In Vas Mani
[08/20/2024 21:28]  Castello: Kal Vas Xen An Flam
[08/20/2024 21:28]  Afsky: In Vas Mani
[08/20/2024 21:28]  Urzula: An Lor Xen
[08/20/2024 21:28]  Urzula: [The Tavern], [tT]
[08/20/2024 21:28]  Urzula: Urzula
[08/20/2024 21:28]  Newdie: Newdie (Young)
[08/20/2024 21:28]  Afsky: In Vas Mani
[08/20/2024 21:28]  a water elemental: (summoned)
[08/20/2024 21:28]  a water elemental: a water elemental
[08/20/2024 21:28]  Castello: a water elemental release
[08/20/2024 21:28]  Castello: Kal Vas Xen An Flam
[08/20/2024 21:28]  Urzula: An Lor Xen
[08/20/2024 21:28]  Afsky: In Vas Mani
[08/20/2024 21:28]  Urzula: An Lor Xen
[08/20/2024 21:28]  Urzula: [The Tavern], [tT]
[08/20/2024 21:28]  Urzula: Urzula
[08/20/2024 21:28]  Afsky: In Vas Mani
[08/20/2024 21:28]  Arteus: [Recruit, KAW]
[08/20/2024 21:28]  Arteus: Arteus
[08/20/2024 21:28]  a water elemental: (summoned)
[08/20/2024 21:28]  a water elemental: a water elemental
[08/20/2024 21:28]  Castello: a water elemental release
[08/20/2024 21:28]  Castello: Kal Vas Xen An Flam
[08/20/2024 21:28]  Urzula: An Lor Xen
[08/20/2024 21:28]  Urzula: [The Tavern], [tT]
[08/20/2024 21:28]  Urzula: Urzula
[08/20/2024 21:28]  Warner the Watch: *area taunt*
[08/20/2024 21:28]  Vigarista: [Runner, PKs]
[08/20/2024 21:28]  Vigarista: Vigarista
[08/20/2024 21:28]  Afsky: Por Ort Grav
[08/20/2024 21:28]  Urzula: An Lor Xen
[08/20/2024 21:28]  Urzula: [The Tavern], [tT]
[08/20/2024 21:28]  Urzula: Urzula
[08/20/2024 21:28]  System: Your campfire is now secure.
[08/20/2024 21:28]  a water elemental: (summoned)
[08/20/2024 21:28]  a water elemental: a water elemental
[08/20/2024 21:28]  Afsky: In Vas Mani
[08/20/2024 21:28]  Urzula: An Lor Xen
[08/20/2024 21:28]  Urzula: [The Tavern], [tT]
[08/20/2024 21:28]  Urzula: Urzula
[08/20/2024 21:29]  Afsky: In Vas Mani
[08/20/2024 21:29]  Urzula: [The Tavern], [tT]
[08/20/2024 21:29]  Urzula: Urzula
[08/20/2024 21:29]  a mongbat: a mongbat
[08/20/2024 21:29]  Afsky: In Vas Mani
[08/20/2024 21:29]  Afsky: In Vas Mani
[08/20/2024 21:29]  Afsky: In Vas Mani
[08/20/2024 21:29]  System: Your campfire is now secure.
[08/20/2024 21:29]  Afsky: In Vas Mani
[08/20/2024 21:29]  Warner the Watch: *area taunt*
[08/20/2024 21:29]  Afsky: In Vas Mani
[08/20/2024 21:29]  Afsky: In Vas Mani
[08/20/2024 21:29]  Newdie: Newdie (Young)
[08/20/2024 21:29]  You see: a mongbat corpse
[08/20/2024 21:29]  Afsky: Por Ort Grav
[08/20/2024 21:29]  You see: a mongbat corpse
[08/20/2024 21:29]  Afsky: In Vas Mani
[08/20/2024 21:29]  Afsky: In Vas Mani
[08/20/2024 21:29]  Mavis Meow: Mavis Meow (Young)
[08/20/2024 21:29]  Vigarista: [Runner, PKs]
[08/20/2024 21:29]  Vigarista: Vigarista
[08/20/2024 21:29]  Afsky: In Vas Mani
[08/20/2024 21:29]  Afsky: In Vas Mani
[08/20/2024 21:29]  Warner the Watch: *area taunt*
[08/20/2024 21:29]  Urzula: An Lor Xen
[08/20/2024 21:29]  Afsky: In Vas Mani
[08/20/2024 21:29]  Vegeir: Vegeir (Young)
[08/20/2024 21:29]  Afsky: In Vas Mani
[08/20/2024 21:29]  Urzula: An Lor Xen
[08/20/2024 21:29]  Urzula: [The Tavern], [tT]
[08/20/2024 21:29]  Urzula: Urzula
[08/20/2024 21:29]  System: MrSnips has completed the achievement: Pickpocket (Basic).
[08/20/2024 21:29]  Urzula: An Lor Xen
[08/20/2024 21:29]  Urzula: [The Tavern], [tT]
[08/20/2024 21:29]  Urzula: Urzula
[08/20/2024 21:29]  Afsky: Por Ort Grav
[08/20/2024 21:29]  Urzula: An Lor Xen
[08/20/2024 21:29]  Afsky: In Vas Mani
[08/20/2024 21:29]  Urzula: An Lor Xen
[08/20/2024 21:29]  Chimmy: Transmuter
[08/20/2024 21:29]  Chimmy: Chimmy
[08/20/2024 21:29]  Afsky: In Vas Mani
[08/20/2024 21:29]  Urzula: An Lor Xen
[08/20/2024 21:29]  Urzula: [The Tavern], [tT]
[08/20/2024 21:29]  Urzula: Urzula
[08/20/2024 21:29]  System: Pretty Gary has completed the achievement: Transmutation (Basic).
[08/20/2024 21:29]  Afsky: In Vas Mani
[08/20/2024 21:29]  Warner the Watch: *area taunt*
[08/20/2024 21:29]  Urzula: An Lor Xen
[08/20/2024 21:29]  Urzula: [The Tavern], [tT]
[08/20/2024 21:29]  Urzula: Urzula
[08/20/2024 21:29]  Afsky: In Vas Mani
[08/20/2024 21:29]  Newdie: Newdie (Young)
[08/20/2024 21:29]  Urzula: [The Tavern], [tT]
[08/20/2024 21:29]  Urzula: Urzula
[08/20/2024 21:29]  MyFactionChar: MyFactionChar (Young)
[08/20/2024 21:29]  Afsky: In Vas Mani
[08/20/2024 21:29]  a mongbat: a mongbat
[08/20/2024 21:29]  Afsky: In Vas Mani
[08/20/2024 21:29]  Afsky: In Vas Mani
[08/20/2024 21:29]  Vigarista: [Runner, PKs]
[08/20/2024 21:29]  Vigarista: Vigarista
[08/20/2024 21:30]  Afsky: In Vas Mani
[08/20/2024 21:30]  Afsky: Por Ort Grav
[08/20/2024 21:30]  Warner the Watch: *area taunt*
[08/20/2024 21:30]  Afsky: In Vas Mani
[08/20/2024 21:30]  Tyrane: Tyrane (Young)
[08/20/2024 21:30]  Afsky: In Vas Mani
[08/20/2024 21:30]  a mongbat: a mongbat
[08/20/2024 21:30]  Afsky: In Vas Mani
[08/20/2024 21:30]  Tyrane: Tyrane (Young)
[08/20/2024 21:30]  Newdie: Newdie (Young)
[08/20/2024 21:30]  Afsky: In Vas Mani
[08/20/2024 21:30]  Afsky: In Vas Mani
[08/20/2024 21:30]  Chimmy: Transmuter
[08/20/2024 21:30]  Chimmy: Chimmy
[08/20/2024 21:30]  a giant bat: a giant bat
[08/20/2024 21:30]  Afsky: In Vas Mani
[08/20/2024 21:30]  Urzula: An Lor Xen
[08/20/2024 21:30]  TwoFlames: TwoFlames
[08/20/2024 21:30]  Urzula: An Lor Xen
[08/20/2024 21:30]  Urzula: [The Tavern], [tT]
[08/20/2024 21:30]  Urzula: Urzula
[08/20/2024 21:30]  Afsky: Por Ort Grav
[08/20/2024 21:30]  Warner the Watch: *area taunt*
[08/20/2024 21:30]  Urzula: [The Tavern], [tT]
[08/20/2024 21:30]  Urzula: Urzula
[08/20/2024 21:30]  Afsky: An Lor Xen
[08/20/2024 21:30]  Vigarista: [Runner, PKs]
[08/20/2024 21:30]  Vigarista: Vigarista
[08/20/2024 21:30]  Afsky: An Lor Xen
[08/20/2024 21:30]  Warner the Watch: Live by the Oath: Uphold the Principles, Maintain the Virtues and Observe the Code of Chivalry
[08/20/2024 21:30]  Afsky: An Lor Xen
[08/20/2024 21:30]  Newdie: Newdie (Young)
[08/20/2024 21:30]  Afsky: An Lor Xen
[08/20/2024 21:30]  Chimmy: Transmuter
[08/20/2024 21:30]  Chimmy: Chimmy
[08/20/2024 21:30]  Afsky: An Lor Xen
[08/20/2024 21:30]  Warner the Watch: *area taunt*
[08/20/2024 21:30]  a giant bat: a giant bat
[08/20/2024 21:30]  Afsky: An Lor Xen
[08/20/2024 21:30]  Afsky: An Lor Xen
[08/20/2024 21:30]  Urzula: An Lor Xen
[08/20/2024 21:30]  Urzula: An Lor Xen
[08/20/2024 21:30]  Urzula: [The Tavern], [tT]
[08/20/2024 21:30]  Urzula: Urzula
[08/20/2024 21:30]  Vigarista: [Runner, PKs]
[08/20/2024 21:30]  Vigarista: Vigarista
[08/20/2024 21:30]  Afsky: An Lor Xen
[08/20/2024 21:30]  a mongbat: a mongbat
[08/20/2024 21:30]  Ashley Stabah: Ashley Stabah
[08/20/2024 21:30]  You see: a forest ostard corpse
[08/20/2024 21:30]  a forest ostard: (bonded)
[08/20/2024 21:30]  a forest ostard: a forest ostard
[08/20/2024 21:30]  System: Players cannot commit aggressive actions in that location.
[08/20/2024 21:30]  Urzula: [The Tavern], [tT]
[08/20/2024 21:30]  Urzula: Urzula
[08/20/2024 21:30]  Afsky: An Lor Xen
[08/20/2024 21:30]  a gravebug: *devours corpse*
[08/20/2024 21:30]  Newdie: Newdie (Young)
[08/20/2024 21:30]  Afsky: An Lor Xen
[08/20/2024 21:31]  Afsky: An Lor Xen
[08/20/2024 21:31]  Warner the Watch: *area taunt*
[08/20/2024 21:31]  Afsky: An Lor Xen
[08/20/2024 21:31]  You see: a mongbat corpse
[08/20/2024 21:31]  Afsky: An Lor Xen
[08/20/2024 21:31]  Afsky: An Lor Xen
[08/20/2024 21:31]  Chimmy: Transmuter
[08/20/2024 21:31]  Chimmy: Chimmy
[08/20/2024 21:31]  Afsky: An Lor Xen
[08/20/2024 21:31]  Urzula: An Lor Xen
[08/20/2024 21:31]  Afsky: An Lor Xen
[08/20/2024 21:31]  Urzula: An Lor Xen
[08/20/2024 21:31]  Newdie: Newdie (Young)
[08/20/2024 21:31]  Urzula: [The Tavern], [tT]
[08/20/2024 21:31]  Urzula: Urzula
[08/20/2024 21:31]  Warner the Watch: *area taunt*
[08/20/2024 21:31]  Afsky: An Lor Xen
[08/20/2024 21:31]  Urzula: An Lor Xen
[08/20/2024 21:31]  Urzula: [The Tavern], [tT]
[08/20/2024 21:31]  Urzula: Urzula
[08/20/2024 21:31]  Vigarista: [Runner, PKs]
[08/20/2024 21:31]  Vigarista: Vigarista
[08/20/2024 21:31]  Urzula: An Lor Xen
[08/20/2024 21:31]  Urzula: [The Tavern], [tT]
[08/20/2024 21:31]  Urzula: Urzula
[08/20/2024 21:31]  Afsky: An Lor Xen
[08/20/2024 21:31]  Urzula: [The Tavern], [tT]
[08/20/2024 21:31]  Urzula: Urzula
[08/20/2024 21:31]  Afsky: An Lor Xen
[08/20/2024 21:31]  Barry McKochner: [Druid, BEAR]
[08/20/2024 21:31]  Barry McKochner: Barry McKochner
[08/20/2024 21:31]  Afsky: An Lor Xen
[08/20/2024 21:31]  a giant bat: a giant bat
[08/20/2024 21:31]  Afsky: An Lor Xen
[08/20/2024 21:31]  Warner the Watch: *area taunt*
[08/20/2024 21:31]  Afsky: An Lor Xen
[08/20/2024 21:31]  Afsky: An Lor Xen
[08/20/2024 21:31]  Afsky: An Lor Xen
[08/20/2024 21:31]  Afsky: An Lor Xen
[08/20/2024 21:31]  Afsky: An Lor Xen
[08/20/2024 21:31]  Afsky: An Lor Xen
[08/20/2024 21:31]  You see: a mongbat corpse
[08/20/2024 21:31]  Warner the Watch: *area taunt*
[08/20/2024 21:31]  Ashley Stabah: Ashley Stabah
[08/20/2024 21:32]  Afsky: An Lor Xen
[08/20/2024 21:32]  Urzula: An Lor Xen
[08/20/2024 21:32]  a Soccer Mom: [Recruit, G.G]
[08/20/2024 21:32]  a Soccer Mom: a Soccer Mom
[08/20/2024 21:32]  Afsky: An Lor Xen
[08/20/2024 21:32]  Urzula: An Lor Xen
[08/20/2024 21:32]  Urzula: [The Tavern], [tT]
[08/20/2024 21:32]  Urzula: Urzula
[08/20/2024 21:32]  Tyrane: An Lor Xen
[08/20/2024 21:32]  Urzula: An Lor Xen
[08/20/2024 21:32]  Urzula: [The Tavern], [tT]
[08/20/2024 21:32]  Urzula: Urzula
[08/20/2024 21:32]  Afsky: An Lor Xen
[08/20/2024 21:32]  Tyrane: An Lor Xen
[08/20/2024 21:32]  Tyrane: Tyrane (Young)
[08/20/2024 21:32]  Urzula: An Lor Xen
[08/20/2024 21:32]  Afsky: An Lor Xen
[08/20/2024 21:32]  Tyrane: An Lor Xen
[08/20/2024 21:32]  Tyrane: Tyrane (Young)
[08/20/2024 21:32]  Urzula: [The Tavern], [tT]
[08/20/2024 21:32]  Urzula: Urzula
[08/20/2024 21:32]  Afsky: An Lor Xen
[08/20/2024 21:32]  System: Farmer Jim has completed the achievement: Wilderness Hunter (Basic).
[08/20/2024 21:32]  Tyrane: An Lor Xen
[08/20/2024 21:32]  Tyrane: Tyrane (Young)
[08/20/2024 21:32]  Newdie: Newdie (Young)
[08/20/2024 21:32]  Warner the Watch: *area taunt*
[08/20/2024 21:32]  Vigarista: [Runner, PKs]
[08/20/2024 21:32]  Vigarista: Vigarista
[08/20/2024 21:32]  Fray Marcos: [Te miro y te santiguo, TOP]
[08/20/2024 21:32]  Fray Marcos: Fray Marcos
[08/20/2024 21:32]  Afsky: An Lor Xen
[08/20/2024 21:32]  Tyrane: An Lor Xen
[08/20/2024 21:32]  Tyrane: Tyrane (Young)
[08/20/2024 21:32]  System: The world will save in 15 seconds.
[08/20/2024 21:32]  Afsky: An Lor Xen
[08/20/2024 21:32]  Tyrane: An Lor Xen
[08/20/2024 21:32]  Tyrane: Tyrane (Young)
[08/20/2024 21:32]  Afsky: An Lor Xen
[08/20/2024 21:32]  Tyrane: Tyrane (Young)
[08/20/2024 21:32]  Tyrane: An Lor Xen
[08/20/2024 21:32]  Afsky: An Lor Xen
[08/20/2024 21:32]  Mavis Meow: Mavis Meow (Young)
[08/20/2024 21:32]  Afsky: An Lor Xen
[08/20/2024 21:32]  Warner the Watch: *area taunt*
[08/20/2024 21:32]  Afsky: An Lor Xen
[08/20/2024 21:32]  Tyrane: Tyrane (Young)
[08/20/2024 21:32]  System: The world is saving, please wait.
[08/20/2024 21:32]  System: World save complete. The entire process took 2.4 seconds.
[08/20/2024 21:32]  Afsky: An Lor Xen
[08/20/2024 21:32]  Afsky: An Lor Xen
[08/20/2024 21:32]  Tyrane: An Lor Xen
[08/20/2024 21:32]  You see: a mongbat corpse
[08/20/2024 21:32]  Afsky: An Lor Xen
[08/20/2024 21:32]  Urzula: An Lor Xen
[08/20/2024 21:32]  a mongbat: a mongbat
[08/20/2024 21:32]  Tyrane: Tyrane (Young)
[08/20/2024 21:32]  Urzula: An Lor Xen
[08/20/2024 21:32]  Urzula: [The Tavern], [tT]
[08/20/2024 21:32]  Urzula: Urzula
[08/20/2024 21:32]  Newdie: Newdie (Young)
[08/20/2024 21:32]  Afsky: An Lor Xen
[08/20/2024 21:32]  You see: a mongbat corpse
[08/20/2024 21:32]  Urzula: An Lor Xen
[08/20/2024 21:32]  Urzula: [The Tavern], [tT]
[08/20/2024 21:32]  Urzula: Urzula
[08/20/2024 21:32]  Warner the Watch: *area taunt*
[08/20/2024 21:32]  Afsky: An Lor Xen
[08/20/2024 21:32]  Urzula: [The Tavern], [tT]
[08/20/2024 21:32]  Urzula: Urzula
[08/20/2024 21:32]  Afsky: An Lor Xen
[08/20/2024 21:32]  Musiukas: Musiukas (Young)
[08/20/2024 21:32]  Tyrane: An Lor Xen
[08/20/2024 21:33]  Afsky: An Lor Xen
[08/20/2024 21:33]  Tyrane: Tyrane (Young)
[08/20/2024 21:33]  Afsky: An Lor Xen
[08/20/2024 21:33]  Warner the Watch: Be thou blessed by the Virtues
[08/20/2024 21:33]  a giant rat: a giant rat
[08/20/2024 21:33]  Chimmy: Transmuter
[08/20/2024 21:33]  Chimmy: Chimmy
[08/20/2024 21:33]  Afsky: An Lor Xen
[08/20/2024 21:33]  Afsky: An Lor Xen
[08/20/2024 21:33]  Warner the Watch: *area taunt*
[08/20/2024 21:33]  Tyrane: An Lor Xen
[08/20/2024 21:33]  Afsky: An Lor Xen
[08/20/2024 21:33]  Tyrane: Tyrane (Young)
[08/20/2024 21:33]  Afsky: An Lor Xen
[08/20/2024 21:33]  Afsky: An Lor Xen
[08/20/2024 21:33]  Afsky: An Lor Xen
[08/20/2024 21:33]  Tyrane: An Lor Xen
[08/20/2024 21:33]  Afsky: An Lor Xen
[08/20/2024 21:33]  You see: a giant rat corpse
[08/20/2024 21:33]  Tyrane: Tyrane (Young)
[08/20/2024 21:33]  Warner the Watch: *area taunt*
[08/20/2024 21:33]  a mongbat: a mongbat
[08/20/2024 21:33]  Urzula: An Lor Xen
[08/20/2024 21:33]  Afsky: An Lor Xen
[08/20/2024 21:33]  Urzula: An Lor Xen
[08/20/2024 21:33]  Fray Marcos: [Te miro y te santiguo, TOP]
[08/20/2024 21:33]  Fray Marcos: Fray Marcos
[08/20/2024 21:33]  Afsky: An Lor Xen
[08/20/2024 21:33]  Urzula: An Lor Xen
[08/20/2024 21:33]  Urzula: [The Tavern], [tT]
[08/20/2024 21:33]  Urzula: Urzula
[08/20/2024 21:33]  System: Goreliy has completed the achievement: Beastial Slayer (Basic).
[08/20/2024 21:33]  Afsky: An Lor Xen
[08/20/2024 21:33]  a mongbat: a mongbat
[08/20/2024 21:33]  Urzula: An Lor Xen
[08/20/2024 21:33]  Tyrane: An Lor Xen
[08/20/2024 21:33]  Afsky: An Lor Xen
[08/20/2024 21:33]  Tyrane: Tyrane (Young)
[08/20/2024 21:33]  Urzula: An Lor Xen
[08/20/2024 21:33]  Fray Marcos: [Te miro y te santiguo, TOP]
[08/20/2024 21:33]  Fray Marcos: Fray Marcos
[08/20/2024 21:33]  Luminant: [G.G]
[08/20/2024 21:33]  Luminant: Luminant
[08/20/2024 21:33]  a horse: (tame)
[08/20/2024 21:33]  a horse: a horse
[08/20/2024 21:33]  Urzula: An Lor Xen
[08/20/2024 21:33]  Afsky: An Lor Xen
[08/20/2024 21:33]  Urzula: [The Tavern], [tT]
[08/20/2024 21:33]  Urzula: Urzula
[08/20/2024 21:33]  Urzula: An Lor Xen
[08/20/2024 21:33]  Urzula: [The Tavern], [tT]
[08/20/2024 21:33]  Urzula: Urzula
[08/20/2024 21:33]  Afsky: An Lor Xen
[08/20/2024 21:33]  Warner the Watch: *area taunt*
[08/20/2024 21:33]  Urzula: [The Tavern], [tT]
[08/20/2024 21:33]  Urzula: Urzula
[08/20/2024 21:33]  You see: a mongbat corpse
[08/20/2024 21:33]  Afsky: An Lor Xen
[08/20/2024 21:33]  Tyrane: An Lor Xen
[08/20/2024 21:33]  Vigarista: [Runner, PKs]
[08/20/2024 21:33]  Vigarista: Vigarista
[08/20/2024 21:33]  Afsky: An Lor Xen
[08/20/2024 21:33]  Tyrane: Tyrane (Young)
[08/20/2024 21:33]  Newdie: Newdie (Young)
[08/20/2024 21:33]  Afsky: An Lor Xen
[08/20/2024 21:34]  Afsky: An Lor Xen
[08/20/2024 21:34]  a giant bat: a giant bat
[08/20/2024 21:34]  You see: a mongbat corpse
[08/20/2024 21:34]  Afsky: An Lor Xen
[08/20/2024 21:34]  Warner the Watch: *area taunt*
[08/20/2024 21:34]  Afsky: An Lor Xen
[08/20/2024 21:34]  Afsky: An Lor Xen
[08/20/2024 21:34]  Luminant: [G.G]
[08/20/2024 21:34]  Luminant: Luminant
[08/20/2024 21:34]  Afsky: An Lor Xen
[08/20/2024 21:34]  System: Kalbren has completed the achievement: Guardian of Kraul Hive (Intermediate).
[08/20/2024 21:34]  Afsky: An Lor Xen
[08/20/2024 21:34]  Urzula: An Lor Xen
[08/20/2024 21:34]  Urzula: An Lor Xen
[08/20/2024 21:34]  Urzula: [The Tavern], [tT]
[08/20/2024 21:34]  Urzula: Urzula
[08/20/2024 21:34]  Afsky: An Lor Xen
[08/20/2024 21:34]  Urzula: An Lor Xen
[08/20/2024 21:34]  Warner the Watch: *area taunt*
[08/20/2024 21:34]  Afsky: An Lor Xen
[08/20/2024 21:34]  Urzula: An Lor Xen
[08/20/2024 21:34]  Afsky: An Lor Xen
[08/20/2024 21:34]  Newdie: Newdie (Young)
[08/20/2024 21:34]  You see: a mongbat corpse
[08/20/2024 21:34]  Urzula: An Lor Xen
[08/20/2024 21:34]  Urzula: [The Tavern], [tT]
[08/20/2024 21:34]  Urzula: Urzula
[08/20/2024 21:34]  Afsky: An Lor Xen
[08/20/2024 21:34]  Urzula: An Lor Xen
[08/20/2024 21:34]  Chimmy: Transmuter
[08/20/2024 21:34]  Chimmy: Chimmy
[08/20/2024 21:34]  Urzula: An Lor Xen
[08/20/2024 21:34]  Urzula: [The Tavern], [tT]
[08/20/2024 21:34]  Urzula: Urzula
[08/20/2024 21:34]  Afsky: An Lor Xen
[08/20/2024 21:34]  Urzula: [The Tavern], [tT]
[08/20/2024 21:34]  Urzula: Urzula
[08/20/2024 21:34]  Afsky: An Lor Xen
[08/20/2024 21:34]  Afsky: An Lor Xen
[08/20/2024 21:34]  Warner the Watch: *area taunt*
[08/20/2024 21:34]  Vigarista: [Runner, PKs]
[08/20/2024 21:34]  Vigarista: Vigarista
[08/20/2024 21:34]  Afsky: An Lor Xen
[08/20/2024 21:34]  You see: the remains of Mavis Meow
[08/20/2024 21:34]  Afsky: An Lor Xen
[08/20/2024 21:34]  Mavis Meow: Mavis Meow (Young)
[08/20/2024 21:34]  Afsky: An Lor Xen
[08/20/2024 21:34]  Afsky: An Lor Xen
[08/20/2024 21:34]  Ashley Stabah: Ashley Stabah
[08/20/2024 21:34]  Afsky: An Lor Xen
[08/20/2024 21:35]  Warner the Watch: *area taunt*
[08/20/2024 21:35]  Afsky: An Lor Xen
[08/20/2024 21:35]  Afsky: An Lor Xen
[08/20/2024 21:35]  Afsky: An Lor Xen
[08/20/2024 21:35]  Afsky: An Lor Xen
[08/20/2024 21:35]  Newdie: Newdie (Young)
[08/20/2024 21:35]  a mongbat: a mongbat
[08/20/2024 21:35]  Afsky: An Lor Xen
[08/20/2024 21:35]  a giant bat: a giant bat
[08/20/2024 21:35]  Urzula: An Lor Xen
[08/20/2024 21:35]  Chimmy: Transmuter
[08/20/2024 21:35]  Chimmy: Chimmy
[08/20/2024 21:35]  Urzula: An Lor Xen
[08/20/2024 21:35]  Afsky: An Lor Xen
[08/20/2024 21:35]  Warner the Watch: *area taunt*
[08/20/2024 21:35]  Urzula: [The Tavern], [tT]
[08/20/2024 21:35]  Urzula: Urzula
[08/20/2024 21:35]  a mongbat: a mongbat
[08/20/2024 21:35]  Urzula: An Lor Xen
[08/20/2024 21:35]  Urzula: [The Tavern], [tT]
[08/20/2024 21:35]  Urzula: Urzula
[08/20/2024 21:35]  Afsky: An Lor Xen
[08/20/2024 21:35]  Urzula: An Lor Xen
[08/20/2024 21:35]  Urzula: [The Tavern], [tT]
[08/20/2024 21:35]  Urzula: Urzula
[08/20/2024 21:35]  Afsky: An Lor Xen
[08/20/2024 21:35]  Urzula: An Lor Xen
[08/20/2024 21:35]  Ashley Stabah: Ashley Stabah
[08/20/2024 21:35]  Afsky: An Lor Xen
[08/20/2024 21:35]  You see: a mongbat corpse
[08/20/2024 21:35]  Urzula: An Lor Xen
[08/20/2024 21:35]  Urzula: [The Tavern], [tT]
[08/20/2024 21:35]  Urzula: Urzula
[08/20/2024 21:35]  Afsky: An Lor Xen
[08/20/2024 21:35]  Urzula: [The Tavern], [tT]
[08/20/2024 21:35]  Urzula: Urzula
[08/20/2024 21:35]  Warner the Watch: Be thou blessed by the Virtues
[08/20/2024 21:35]  Afsky: An Lor Xen
[08/20/2024 21:35]  Warner the Watch: *area taunt*
[08/20/2024 21:35]  Afsky: An Lor Xen
[08/20/2024 21:35]  Chimmy: Transmuter
[08/20/2024 21:35]  Chimmy: Chimmy
[08/20/2024 21:35]  Afsky: An Lor Xen
[08/20/2024 21:35]  Afsky: An Lor Xen
[08/20/2024 21:35]  Afsky: An Lor Xen
[08/20/2024 21:35]  System: Hoarder Rich has completed the achievement: Transmutation (Basic).
[08/20/2024 21:35]  Afsky: An Lor Xen
[08/20/2024 21:35]  Warner the Watch: *area taunt*
[08/20/2024 21:35]  Afsky: An Lor Xen
[08/20/2024 21:35]  Newdie: Newdie (Young)
[08/20/2024 21:36]  Afsky: An Lor Xen
[08/20/2024 21:36]  Afsky: An Lor Xen
[08/20/2024 21:36]  Urzula: An Lor Xen
[08/20/2024 21:36]  Afsky: An Lor Xen
[08/20/2024 21:36]  System: Your campfire is now secure.
[08/20/2024 21:36]  Urzula: An Lor Xen
[08/20/2024 21:36]  Urzula: [The Tavern], [tT]
[08/20/2024 21:36]  Urzula: Urzula
[08/20/2024 21:36]  Afsky: An Lor Xen
[08/20/2024 21:36]  Urzula: An Lor Xen
[08/20/2024 21:36]  Urzula: [The Tavern], [tT]
[08/20/2024 21:36]  Urzula: Urzula
[08/20/2024 21:36]  You see: a mongbat corpse
[08/20/2024 21:36]  Urzula: [The Tavern], [tT]
[08/20/2024 21:36]  Urzula: Urzula
[08/20/2024 21:36]  Afsky: An Lor Xen
[08/20/2024 21:36]  Warner the Watch: *area taunt*
[08/20/2024 21:36]  Chimmy: Transmuter
[08/20/2024 21:36]  Chimmy: Chimmy
[08/20/2024 21:36]  Afsky: An Lor Xen
[08/20/2024 21:36]  Afsky: An Lor Xen
[08/20/2024 21:36]  Afsky: An Lor Xen
[08/20/2024 21:36]  Afsky: An Lor Xen
[08/20/2024 21:36]  Afsky: An Lor Xen
[08/20/2024 21:36]  Warner the Watch: *area taunt*
[08/20/2024 21:36]  Afsky: An Lor Xen
[08/20/2024 21:36]  Chimmy: Transmuter
[08/20/2024 21:36]  Chimmy: Chimmy
[08/20/2024 21:36]  Afsky: An Lor Xen
[08/20/2024 21:36]  Afsky: An Lor Xen
[08/20/2024 21:36]  System: Warenth Shaeyata has completed the achievement: Triggered (Basic).
[08/20/2024 21:36]  Afsky: An Lor Xen
[08/20/2024 21:36]  Urzula: An Lor Xen
[08/20/2024 21:36]  Afsky: An Lor Xen
[08/20/2024 21:36]  a giant bat: a giant bat
[08/20/2024 21:36]  Urzula: An Lor Xen
[08/20/2024 21:36]  Urzula: [The Tavern], [tT]
[08/20/2024 21:36]  Urzula: Urzula
[08/20/2024 21:36]  Warner the Watch: *area taunt*
[08/20/2024 21:36]  Afsky: An Lor Xen
[08/20/2024 21:36]  Urzula: An Lor Xen
[08/20/2024 21:36]  Urzula: [The Tavern], [tT]
[08/20/2024 21:36]  Urzula: Urzula
[08/20/2024 21:36]  Newdie: Newdie (Young)
[08/20/2024 21:36]  Afsky: An Lor Xen
[08/20/2024 21:36]  Urzula: [The Tavern], [tT]
[08/20/2024 21:36]  Urzula: Urzula
[08/20/2024 21:36]  Afsky: An Lor Xen
[08/20/2024 21:36]  Zha Q'ar: [Patient Zero, Yew]
[08/20/2024 21:36]  Zha Q'ar: Lord Zha Q'ar
[08/20/2024 21:37]  Afsky: An Lor Xen
[08/20/2024 21:37]  Zha Q'ar: Por Ort Grav
[08/20/2024 21:37]  Afsky: An Lor Xen
[08/20/2024 21:37]  Zha Q'ar: Por Ort Grav
[08/20/2024 21:37]  Afsky: An Lor Xen
[08/20/2024 21:37]  Ashley Stabah: Ashley Stabah
[08/20/2024 21:37]  a mongbat: a mongbat
[08/20/2024 21:37]  Warner the Watch: *area taunt*
[08/20/2024 21:37]  Chimmy: Transmuter
[08/20/2024 21:37]  Chimmy: Chimmy
[08/20/2024 21:37]  Afsky: An Lor Xen
[08/20/2024 21:37]  Zha Q'ar: Por Ort Grav
[08/20/2024 21:37]  Newdie: Newdie (Young)
[08/20/2024 21:37]  Afsky: An Lor Xen
[08/20/2024 21:37]  Afsky: An Lor Xen
[08/20/2024 21:37]  Afsky: An Lor Xen
[08/20/2024 21:37]  Zha Q'ar: Por Ort Grav
[08/20/2024 21:37]  Vegeir: Vegeir (Young)
[08/20/2024 21:37]  Afsky: An Lor Xen
[08/20/2024 21:37]  Zha Q'ar: Por Ort Grav
[08/20/2024 21:37]  Warner the Watch: *area taunt*
[08/20/2024 21:37]  a mongbat: a mongbat
[08/20/2024 21:37]  Urzula: An Lor Xen
[08/20/2024 21:37]  Afsky: An Lor Xen
[08/20/2024 21:37]  Zha Q'ar: Por Ort Grav
[08/20/2024 21:37]  Urzula: An Lor Xen
[08/20/2024 21:37]  Urzula: [The Tavern], [tT]
[08/20/2024 21:37]  Urzula: Urzula
[08/20/2024 21:37]  Afsky: An Lor Xen
[08/20/2024 21:37]  Zha Q'ar: Por Ort Grav
[08/20/2024 21:37]  Urzula: An Lor Xen
[08/20/2024 21:37]  Urzula: [The Tavern], [tT]
[08/20/2024 21:37]  Urzula: Urzula
[08/20/2024 21:37]  Zha Q'ar: Por Ort Grav
[08/20/2024 21:37]  Afsky: An Lor Xen
[08/20/2024 21:37]  Urzula: [The Tavern], [tT]
[08/20/2024 21:37]  Urzula: Urzula
[08/20/2024 21:37]  Ailiin: Target: a mongbat
[08/20/2024 21:37]  Razor: Attack: a mongbat
[08/20/2024 21:37]  Zha Q'ar: Por Ort Grav
[08/20/2024 21:37]  Afsky: An Lor Xen
[08/20/2024 21:37]  System: Holy symbols remaining: 5/6
[08/20/2024 21:37]  Zha Q'ar: Por Ort Grav
[08/20/2024 21:37]  Ashley Stabah: Ashley Stabah
[08/20/2024 21:37]  Afsky: An Lor Xen
[08/20/2024 21:37]  You see: a mongbat corpse
[08/20/2024 21:37]  Zha Q'ar: Por Ort Grav
[08/20/2024 21:37]  System: Max holy symbols earned (6/6)
[08/20/2024 21:37]  Afsky: An Lor Xen
[08/20/2024 21:37]  Warner the Watch: *area taunt*
[08/20/2024 21:37]  Zha Q'ar: Por Ort Grav
[08/20/2024 21:37]  Afsky: An Lor Xen
[08/20/2024 21:37]  Zha Q'ar: Por Ort Grav
[08/20/2024 21:37]  Afsky: An Lor Xen
[08/20/2024 21:37]  System: Your campfire is now secure.
[08/20/2024 21:37]  Afsky: An Lor Xen
[08/20/2024 21:37]  Zha Q'ar: Por Ort Grav
[08/20/2024 21:37]  Afsky: An Lor Xen
[08/20/2024 21:38]  Afsky: An Lor Xen
[08/20/2024 21:38]  Warner the Watch: *area taunt*
[08/20/2024 21:38]  Bad Box: Bad Box (Young)
[08/20/2024 21:38]  Afsky: An Lor Xen
[08/20/2024 21:38]  Warner the Watch: The Knights Guild shalt always stand for the good and shalt Uphold the Virtues!
[08/20/2024 21:38]  Zha Q'ar: Por Ort Grav
[08/20/2024 21:38]  Afsky: An Lor Xen
[08/20/2024 21:38]  Newdie: Newdie (Young)
[08/20/2024 21:38]  Urzula: An Lor Xen
[08/20/2024 21:38]  Urzula: An Lor Xen
[08/20/2024 21:38]  Afsky: An Lor Xen
[08/20/2024 21:38]  Urzula: [The Tavern], [tT]
[08/20/2024 21:38]  Urzula: Urzula
[08/20/2024 21:38]  Urzula: An Lor Xen
[08/20/2024 21:38]  Urzula: [The Tavern], [tT]
[08/20/2024 21:38]  Urzula: Urzula
[08/20/2024 21:38]  Afsky: An Lor Xen
[08/20/2024 21:38]  Chimmy: Transmuter
[08/20/2024 21:38]  Chimmy: Chimmy
[08/20/2024 21:38]  Zha Q'ar: Por Ort Grav
[08/20/2024 21:38]  Urzula: [The Tavern], [tT]
[08/20/2024 21:38]  Urzula: Urzula
[08/20/2024 21:38]  Afsky: An Lor Xen
[08/20/2024 21:38]  Warner the Watch: *area taunt*
[08/20/2024 21:38]  Afsky: An Lor Xen
[08/20/2024 21:38]  Afsky: An Lor Xen
[08/20/2024 21:38]  Zha Q'ar: Por Ort Grav
[08/20/2024 21:38]  Afsky: An Lor Xen
[08/20/2024 21:38]  You see: a giant rat corpse
[08/20/2024 21:38]  Afsky: An Lor Xen
[08/20/2024 21:38]  Afsky: An Lor Xen
[08/20/2024 21:38]  Chimmy: Transmuter
[08/20/2024 21:38]  Chimmy: Chimmy
[08/20/2024 21:38]  Zha Q'ar: Por Ort Grav
[08/20/2024 21:38]  Afsky: An Lor Xen
[08/20/2024 21:38]  Warner the Watch: *area taunt*
[08/20/2024 21:38]  Zha Q'ar: Por Ort Grav
[08/20/2024 21:38]  Luminant: [G.G]
[08/20/2024 21:38]  Luminant: Luminant
[08/20/2024 21:38]  Afsky: An Lor Xen
[08/20/2024 21:38]  Zha Q'ar: Por Ort Grav
[08/20/2024 21:38]  Afsky: An Lor Xen
[08/20/2024 21:38]  Afsky: An Lor Xen
[08/20/2024 21:38]  Urzula: An Lor Xen
[08/20/2024 21:38]  Vegeir: Vegeir (Young)
[08/20/2024 21:38]  Afsky: An Lor Xen
[08/20/2024 21:38]  Urzula: An Lor Xen
[08/20/2024 21:38]  Urzula: [The Tavern], [tT]
[08/20/2024 21:38]  Urzula: Urzula
[08/20/2024 21:38]  You see: a mongbat corpse
[08/20/2024 21:38]  Urzula: An Lor Xen
[08/20/2024 21:38]  Urzula: [The Tavern], [tT]
[08/20/2024 21:38]  Urzula: Urzula
[08/20/2024 21:38]  Afsky: An Lor Xen
[08/20/2024 21:38]  Warner the Watch: *area taunt*
[08/20/2024 21:38]  Urzula: An Lor Xen
[08/20/2024 21:38]  Urzula: [The Tavern], [tT]
[08/20/2024 21:38]  Urzula: Urzula
[08/20/2024 21:39]  Afsky: An Lor Xen
[08/20/2024 21:39]  Urzula: [The Tavern], [tT]
[08/20/2024 21:39]  Urzula: Urzula
[08/20/2024 21:39]  Tailorito: [Veteran, Nr1]
[08/20/2024 21:39]  Tailorito: Tailorito
[08/20/2024 21:39]  Afsky: An Lor Xen
[08/20/2024 21:39]  Newdie: Newdie (Young)
[08/20/2024 21:39]  You see: a mongbat corpse
[08/20/2024 21:39]  Afsky: An Lor Xen
[08/20/2024 21:39]  Afsky: An Lor Xen
[08/20/2024 21:39]  Afsky: An Lor Xen
[08/20/2024 21:39]  Zha Q'ar: Por Ort Grav
[08/20/2024 21:39]  Afsky: An Lor Xen
[08/20/2024 21:39]  Warner the Watch: *area taunt*
[08/20/2024 21:39]  a mongbat: a mongbat
[08/20/2024 21:39]  flat earth: Cambria
[08/20/2024 21:39]  flat earth: [DONT TRUST NASA, Syn]
[08/20/2024 21:39]  flat earth: flat earth
[08/20/2024 21:39]  Afsky: An Lor Xen
[08/20/2024 21:39]  Zha Q'ar: Por Ort Grav
[08/20/2024 21:39]  Afsky: An Lor Xen
[08/20/2024 21:39]  Zha Q'ar: Por Ort Grav
[08/20/2024 21:39]  Newdie: Newdie (Young)
[08/20/2024 21:39]  Afsky: An Lor Xen
[08/20/2024 21:39]  Afsky: An Lor Xen
[08/20/2024 21:39]  System: Your campfire is now secure.
[08/20/2024 21:39]  CorruptArcane: CorruptArcane (Young)
[08/20/2024 21:39]  Urzula: An Lor Xen
[08/20/2024 21:39]  Afsky: An Lor Xen
[08/20/2024 21:39]  Zha Q'ar: Por Ort Grav
[08/20/2024 21:39]  Warner the Watch: *area taunt*
[08/20/2024 21:39]  Urzula: An Lor Xen
[08/20/2024 21:39]  Urzula: [The Tavern], [tT]
[08/20/2024 21:39]  Urzula: Urzula
[08/20/2024 21:39]  Zha Q'ar: Por Ort Grav
[08/20/2024 21:39]  Afsky: An Lor Xen
[08/20/2024 21:39]  Urzula: An Lor Xen
[08/20/2024 21:39]  Urzula: [The Tavern], [tT]
[08/20/2024 21:39]  Urzula: Urzula
[08/20/2024 21:39]  System: Kyria has completed the achievement: Guardian of Ossuary (Basic).
[08/20/2024 21:39]  System: Your campfire is now secure.
[08/20/2024 21:39]  Afsky: An Lor Xen
[08/20/2024 21:39]  Urzula: An Lor Xen
[08/20/2024 21:39]  Tailorito: [Veteran, Nr1]
[08/20/2024 21:39]  Tailorito: Tailorito
[08/20/2024 21:39]  Afsky: An Lor Xen
[08/20/2024 21:39]  Urzula: [The Tavern], [tT]
[08/20/2024 21:39]  Urzula: Urzula
[08/20/2024 21:39]  Zha Q'ar: Por Ort Grav
[08/20/2024 21:39]  a giant bat: a giant bat
[08/20/2024 21:39]  a mongbat: a mongbat
[08/20/2024 21:39]  Afsky: An Lor Xen
[08/20/2024 21:39]  Zha Q'ar: Por Ort Grav
[08/20/2024 21:39]  Newdie: Newdie (Young)
[08/20/2024 21:39]  Afsky: An Lor Xen
[08/20/2024 21:39]  Zha Q'ar: Por Ort Grav
[08/20/2024 21:39]  Warner the Watch: *area taunt*
[08/20/2024 21:39]  Afsky: An Lor Xen
[08/20/2024 21:39]  Afsky: An Lor Xen
[08/20/2024 21:39]  UlfrikStabson: UlfrikStabson (Young)
[08/20/2024 21:40]  Zha Q'ar: Por Ort Grav
[08/20/2024 21:40]  Afsky: An Lor Xen
[08/20/2024 21:40]  Afsky: An Lor Xen
[08/20/2024 21:40]  Afsky: An Lor Xen
[08/20/2024 21:40]  You see: a mongbat corpse
[08/20/2024 21:40]  Afsky: An Lor Xen
[08/20/2024 21:40]  Warner the Watch: *area taunt*
[08/20/2024 21:40]  Afsky: An Lor Xen
[08/20/2024 21:40]  Urzula: An Lor Xen
[08/20/2024 21:40]  Afsky: An Lor Xen
[08/20/2024 21:40]  UlfrikStabson: UlfrikStabson (Young)
[08/20/2024 21:40]  Urzula: An Lor Xen
[08/20/2024 21:40]  Urzula: [The Tavern], [tT]
[08/20/2024 21:40]  Urzula: Urzula
[08/20/2024 21:40]  Afsky: An Lor Xen
[08/20/2024 21:40]  Urzula: An Lor Xen
[08/20/2024 21:40]  Urzula: [The Tavern], [tT]
[08/20/2024 21:40]  Urzula: Urzula
[08/20/2024 21:40]  System: Viracious has completed the achievement: Aspect Mastery (Basic).
[08/20/2024 21:40]  System: Mineralogist has completed the achievement: Prospector (Advanced).
[08/20/2024 21:40]  Afsky: An Lor Xen
[08/20/2024 21:40]  Urzula: [The Tavern], [tT]
[08/20/2024 21:40]  Urzula: Urzula
[08/20/2024 21:40]  a giant bat: a giant bat
[08/20/2024 21:40]  Luminant: [G.G]
[08/20/2024 21:40]  Luminant: Luminant
[08/20/2024 21:40]  Afsky: An Lor Xen
[08/20/2024 21:40]  Chimmy: Transmuter
[08/20/2024 21:40]  Chimmy: Chimmy
[08/20/2024 21:40]  Warner the Watch: *area taunt*
[08/20/2024 21:40]  Afsky: An Lor Xen
[08/20/2024 21:40]  You see: a mongbat corpse
[08/20/2024 21:40]  NotherOoei: NotherOoei (Young)
[08/20/2024 21:40]  Newdie: Newdie (Young)
[08/20/2024 21:40]  Tailorito: [Veteran, Nr1]
[08/20/2024 21:40]  Tailorito: Tailorito
[08/20/2024 21:40]  Afsky: An Lor Xen
[08/20/2024 21:40]  Warner the Watch: The Knights Guild stands ever in the light of Virtue
[08/20/2024 21:40]  System: Your campfire is now secure.
[08/20/2024 21:40]  Afsky: An Lor Xen
[08/20/2024 21:40]  Afsky: An Lor Xen
[08/20/2024 21:40]  Afsky: An Lor Xen
[08/20/2024 21:40]  Afsky: An Lor Xen
[08/20/2024 21:40]  Warner the Watch: *area taunt*
[08/20/2024 21:40]  Afsky: An Lor Xen
[08/20/2024 21:40]  a giant bat: a giant bat
[08/20/2024 21:40]  Afsky: An Lor Xen
[08/20/2024 21:40]  NotherOoei: NotherOoei (Young)
[08/20/2024 21:40]  Urzula: An Lor Xen
[08/20/2024 21:40]  Afsky: An Lor Xen
[08/20/2024 21:41]  a mongbat: a mongbat
[08/20/2024 21:41]  Urzula: An Lor Xen
[08/20/2024 21:41]  Afsky: An Lor Xen
[08/20/2024 21:41]  Urzula: An Lor Xen
[08/20/2024 21:41]  Urzula: [The Tavern], [tT]
[08/20/2024 21:41]  Urzula: Urzula
[08/20/2024 21:41]  Afsky: An Lor Xen
[08/20/2024 21:41]  Urzula: An Lor Xen
[08/20/2024 21:41]  You see: a mongbat corpse
[08/20/2024 21:41]  Urzula: [The Tavern], [tT]
[08/20/2024 21:41]  Urzula: Urzula
[08/20/2024 21:41]  Warner the Watch: *area taunt*
[08/20/2024 21:41]  a mongbat: a mongbat
[08/20/2024 21:41]  Afsky: An Lor Xen
[08/20/2024 21:41]  Urzula: [The Tavern], [tT]
[08/20/2024 21:41]  Urzula: Urzula
[08/20/2024 21:41]  Afsky: An Lor Xen
[08/20/2024 21:41]  Afsky: An Lor Xen
[08/20/2024 21:41]  Afsky: An Lor Xen
[08/20/2024 21:41]  Afsky: An Lor Xen
[08/20/2024 21:41]  UlfrikStabson: Guards!
[08/20/2024 21:41]  UlfrikStabson: UlfrikStabson (Young)
[08/20/2024 21:41]  Warner the Watch: *area taunt*
[08/20/2024 21:41]  Jacque Piarais: Jacque Piarais (Young)
[08/20/2024 21:41]  Afsky: An Lor Xen
[08/20/2024 21:41]  UlfrikStabson: bank
[08/20/2024 21:41]  Afsky: An Lor Xen
[08/20/2024 21:41]  a giant bat: a giant bat
[08/20/2024 21:41]  Afsky: An Lor Xen
[08/20/2024 21:41]  Musiukas: Musiukas (Young)
[08/20/2024 21:41]  Afsky: An Lor Xen
[08/20/2024 21:41]  Vegeir: Vegeir (Young)
[08/20/2024 21:41]  Jacque Piarais: Jacque Piarais (Young)
[08/20/2024 21:41]  Afsky: An Lor Xen
[08/20/2024 21:41]  UlfrikStabson: UlfrikStabson (Young)
[08/20/2024 21:41]  Urzula: An Lor Xen
[08/20/2024 21:41]  Afsky: An Lor Xen
[08/20/2024 21:41]  Warner the Watch: *area taunt*
[08/20/2024 21:41]  Urzula: An Lor Xen
[08/20/2024 21:41]  Urzula: [The Tavern], [tT]
[08/20/2024 21:41]  Urzula: Urzula
[08/20/2024 21:41]  Afsky: An Lor Xen
[08/20/2024 21:41]  Urzula: An Lor Xen
[08/20/2024 21:41]  Chimmy: Transmuter
[08/20/2024 21:41]  Chimmy: Chimmy
[08/20/2024 21:41]  Urzula: [The Tavern], [tT]
[08/20/2024 21:41]  Urzula: Urzula
[08/20/2024 21:41]  Afsky: An Lor Xen
[08/20/2024 21:41]  Urzula: An Lor Xen
[08/20/2024 21:41]  Urzula: [The Tavern], [tT]
[08/20/2024 21:41]  Urzula: Urzula
[08/20/2024 21:41]  System: Your campfire is now secure.
[08/20/2024 21:41]  Afsky: An Lor Xen
[08/20/2024 21:41]  Urzula: [The Tavern], [tT]
[08/20/2024 21:41]  Urzula: Urzula
[08/20/2024 21:41]  Afsky: An Lor Xen
[08/20/2024 21:41]  Afsky: An Lor Xen
[08/20/2024 21:42]  Warner the Watch: *area taunt*
[08/20/2024 21:42]  Afsky: An Lor Xen
[08/20/2024 21:42]  Afsky: An Lor Xen
[08/20/2024 21:42]  CorruptArcane: CorruptArcane (Young)
[08/20/2024 21:42]  Afsky: An Lor Xen
[08/20/2024 21:42]  You see: a mongbat corpse
[08/20/2024 21:42]  Afsky: An Lor Xen
[08/20/2024 21:42]  a mongbat: a mongbat
[08/20/2024 21:42]  Afsky: An Lor Xen
[08/20/2024 21:42]  Afsky: An Lor Xen
[08/20/2024 21:42]  Warner the Watch: *area taunt*
[08/20/2024 21:42]  You see: a mongbat corpse
[08/20/2024 21:42]  Chimmy: Transmuter
[08/20/2024 21:42]  Chimmy: Chimmy
[08/20/2024 21:42]  Afsky: An Lor Xen
[08/20/2024 21:42]  System: Starcodebacon has completed the achievement: Affluent (Advanced).
[08/20/2024 21:42]  Urzula: An Lor Xen
[08/20/2024 21:42]  Urzula: An Lor Xen
[08/20/2024 21:42]  Afsky: An Lor Xen
[08/20/2024 21:42]  Urzula: [The Tavern], [tT]
[08/20/2024 21:42]  Urzula: Urzula
[08/20/2024 21:42]  Ashley Stabah: Ashley Stabah
[08/20/2024 21:42]  Urzula: An Lor Xen
[08/20/2024 21:42]  Urzula: [The Tavern], [tT]
[08/20/2024 21:42]  Urzula: Urzula
[08/20/2024 21:42]  Afsky: An Lor Xen
[08/20/2024 21:42]  Urzula: An Lor Xen
[08/20/2024 21:42]  Urzula: [The Tavern], [tT]
[08/20/2024 21:42]  Urzula: Urzula
[08/20/2024 21:42]  Afsky: An Lor Xen
[08/20/2024 21:42]  Urzula: [The Tavern], [tT]
[08/20/2024 21:42]  Urzula: Urzula
[08/20/2024 21:42]  Afsky: An Lor Xen
[08/20/2024 21:42]  Warner the Watch: *area taunt*
[08/20/2024 21:42]  System: a fine tailor has completed the achievement: Tailor (Basic).
[08/20/2024 21:42]  Afsky: An Lor Xen
[08/20/2024 21:42]  You see: a mongbat corpse
[08/20/2024 21:42]  Afsky: An Lor Xen
[08/20/2024 21:42]  You see: a mongbat corpse
[08/20/2024 21:42]  Afsky: An Lor Xen
[08/20/2024 21:42]  Afsky: An Lor Xen
[08/20/2024 21:42]  Afsky: An Lor Xen
[08/20/2024 21:42]  Leide: Legendary Tailor
[08/20/2024 21:42]  Leide: [Recruit, EVIL]
[08/20/2024 21:42]  Leide: Lady Leide
[08/20/2024 21:42]  Warner the Watch: *area taunt*
[08/20/2024 21:42]  Afsky: An Lor Xen
[08/20/2024 21:43]  Afsky: An Lor Xen
[08/20/2024 21:43]  a horse: (tame)
[08/20/2024 21:43]  a horse: a horse
[08/20/2024 21:43]  Leide: Legendary Tailor
[08/20/2024 21:43]  Leide: [Recruit, EVIL]
[08/20/2024 21:43]  Leide: Lady Leide
[08/20/2024 21:43]  Afsky: An Lor Xen
[08/20/2024 21:43]  Vegeir: Vegeir (Young)
[08/20/2024 21:43]  Urzula: An Lor Xen
[08/20/2024 21:43]  Jacque Piarais: Jacque Piarais (Young)
[08/20/2024 21:43]  Afsky: An Lor Xen
[08/20/2024 21:43]  Warner the Watch: Live by the Oath: Uphold the Principles, Maintain the Virtues and Observe the Code of Chivalry
[08/20/2024 21:43]  Urzula: An Lor Xen
[08/20/2024 21:43]  Urzula: [The Tavern], [tT]
[08/20/2024 21:43]  Urzula: Urzula
[08/20/2024 21:43]  Afsky: An Lor Xen
[08/20/2024 21:43]  Urzula: An Lor Xen
[08/20/2024 21:43]  Urzula: [The Tavern], [tT]
[08/20/2024 21:43]  Urzula: Urzula
[08/20/2024 21:43]  Afsky: An Lor Xen
[08/20/2024 21:43]  Urzula: An Lor Xen
[08/20/2024 21:43]  Urzula: [The Tavern], [tT]
[08/20/2024 21:43]  Urzula: Urzula
[08/20/2024 21:43]  Warner the Watch: *area taunt*
[08/20/2024 21:43]  Urzula: [The Tavern], [tT]
[08/20/2024 21:43]  Urzula: Urzula
[08/20/2024 21:43]  Afsky: An Lor Xen
[08/20/2024 21:43]  Dopamine: Roll Player
[08/20/2024 21:43]  Dopamine: [FS!]
[08/20/2024 21:43]  Dopamine: Dopamine
[08/20/2024 21:43]  Afsky: An Lor Xen
[08/20/2024 21:43]  Afsky: An Lor Xen
[08/20/2024 21:43]  Afsky: An Lor Xen
[08/20/2024 21:43]  Afsky: An Lor Xen
[08/20/2024 21:43]  Warner the Watch: *area taunt*
[08/20/2024 21:43]  Dopamine: An Lor Xen
[08/20/2024 21:43]  Afsky: An Lor Xen
[08/20/2024 21:43]  a mongbat: a mongbat
[08/20/2024 21:43]  Afsky: An Lor Xen
[08/20/2024 21:43]  Vegeir: Vegeir (Young)
[08/20/2024 21:43]  Afsky: An Lor Xen
[08/20/2024 21:43]  Afsky: An Lor Xen
[08/20/2024 21:43]  System: Preset Princess has completed the achievement: Alchemist (Advanced).
[08/20/2024 21:43]  Afsky: An Lor Xen
[08/20/2024 21:43]  Urzula: An Lor Xen
[08/20/2024 21:43]  Afsky: An Lor Xen
[08/20/2024 21:43]  Warner the Watch: *area taunt*
[08/20/2024 21:43]  Urzula: An Lor Xen
[08/20/2024 21:43]  Urzula: [The Tavern], [tT]
[08/20/2024 21:43]  Urzula: Urzula
[08/20/2024 21:43]  Afsky: An Lor Xen
[08/20/2024 21:43]  Urzula: An Lor Xen
[08/20/2024 21:43]  Urzula: [The Tavern], [tT]
[08/20/2024 21:43]  Urzula: Urzula
[08/20/2024 21:43]  a giant bat: a giant bat
[08/20/2024 21:43]  Zha Q'ar: [Patient Zero, Yew]
[08/20/2024 21:43]  Zha Q'ar: Lord Zha Q'ar
[08/20/2024 21:43]  Afsky: An Lor Xen
[08/20/2024 21:43]  Urzula: An Lor Xen
[08/20/2024 21:43]  Urzula: [The Tavern], [tT]
[08/20/2024 21:43]  Urzula: Urzula
[08/20/2024 21:44]  Afsky: An Lor Xen
[08/20/2024 21:44]  Urzula: [The Tavern], [tT]
[08/20/2024 21:44]  Urzula: Urzula
[08/20/2024 21:44]  Zha Q'ar: Por Ort Grav
[08/20/2024 21:44]  Afsky: An Lor Xen
[08/20/2024 21:44]  Afsky: An Lor Xen
[08/20/2024 21:44]  Zha Q'ar: Por Ort Grav
[08/20/2024 21:44]  Warner the Watch: *area taunt*
[08/20/2024 21:44]  Afsky: An Lor Xen
[08/20/2024 21:44]  Afsky: An Lor Xen
[08/20/2024 21:44]  Afsky: An Lor Xen
[08/20/2024 21:44]  Caelrhys: Caelrhys
[08/20/2024 21:44]  Zha Q'ar: Por Ort Grav
[08/20/2024 21:44]  Afsky: An Lor Xen
[08/20/2024 21:44]  Zha Q'ar: Por Ort Grav
[08/20/2024 21:44]  Afsky: An Lor Xen
[08/20/2024 21:44]  Zha Q'ar: Por Ort Grav
[08/20/2024 21:44]  Warner the Watch: *area taunt*
[08/20/2024 21:44]  Afsky: An Lor Xen
[08/20/2024 21:44]  Caelrhys: Caelrhys
[08/20/2024 21:44]  Moce: Moce (Young)
[08/20/2024 21:44]  Afsky: An Lor Xen
[08/20/2024 21:44]  Urzula: An Lor Xen
[08/20/2024 21:44]  Zha Q'ar: Por Ort Grav
[08/20/2024 21:44]  Urzula: An Lor Xen
[08/20/2024 21:44]  Afsky: An Lor Xen
[08/20/2024 21:44]  Urzula: [The Tavern], [tT]
[08/20/2024 21:44]  Urzula: Urzula
[08/20/2024 21:44]  Urzula: An Lor Xen
[08/20/2024 21:44]  Urzula: [The Tavern], [tT]
[08/20/2024 21:44]  Urzula: Urzula
[08/20/2024 21:44]  Afsky: An Lor Xen
[08/20/2024 21:44]  Urzula: An Lor Xen
[08/20/2024 21:44]  Urzula: [The Tavern], [tT]
[08/20/2024 21:44]  Urzula: Urzula
[08/20/2024 21:44]  Afsky: An Lor Xen
[08/20/2024 21:44]  Zha Q'ar: Por Ort Grav
[08/20/2024 21:44]  Urzula: An Lor Xen
[08/20/2024 21:44]  Urzula: [The Tavern], [tT]
[08/20/2024 21:44]  Urzula: Urzula
[08/20/2024 21:44]  a giant bat: a giant bat
[08/20/2024 21:44]  Chimmy: Transmuter
[08/20/2024 21:44]  Chimmy: Chimmy
[08/20/2024 21:44]  Zha Q'ar: Por Ort Grav
[08/20/2024 21:44]  Afsky: An Lor Xen
[08/20/2024 21:44]  Warner the Watch: *area taunt*
[08/20/2024 21:44]  Urzula: An Lor Xen
[08/20/2024 21:44]  Urzula: [The Tavern], [tT]
[08/20/2024 21:44]  Urzula: Urzula
[08/20/2024 21:44]  Zha Q'ar: Por Ort Grav
[08/20/2024 21:44]  Afsky: An Lor Xen
[08/20/2024 21:44]  Urzula: [The Tavern], [tT]
[08/20/2024 21:44]  Urzula: Urzula
[08/20/2024 21:44]  Caelrhys: Caelrhys
[08/20/2024 21:44]  Afsky: An Lor Xen
[08/20/2024 21:44]  Zha Q'ar: Por Ort Grav
[08/20/2024 21:44]  Afsky: An Lor Xen
[08/20/2024 21:44]  Afsky: An Lor Xen
[08/20/2024 21:45]  Afsky: An Lor Xen
[08/20/2024 21:45]  Warner the Watch: *area taunt*
[08/20/2024 21:45]  Zha Q'ar: Por Ort Grav
[08/20/2024 21:45]  Afsky: An Lor Xen
[08/20/2024 21:45]  Afsky: An Lor Xen
[08/20/2024 21:45]  a mongbat: a mongbat
[08/20/2024 21:45]  You see: a mongbat corpse
[08/20/2024 21:45]  Afsky: An Lor Xen
[08/20/2024 21:45]  Zha Q'ar: Por Ort Grav
[08/20/2024 21:45]  Afsky: An Lor Xen
[08/20/2024 21:45]  Fray Marcos: In Vas Mani
[08/20/2024 21:45]  Afsky: An Lor Xen
[08/20/2024 21:45]  You see: a mongbat corpse
[08/20/2024 21:45]  Afsky: An Lor Xen
[08/20/2024 21:45]  Warner the Watch: *area taunt*
[08/20/2024 21:45]  Barry McKochner: [Druid, BEAR]
[08/20/2024 21:45]  Barry McKochner: Barry McKochner
[08/20/2024 21:45]  Zha Q'ar: Por Ort Grav
[08/20/2024 21:45]  Afsky: An Lor Xen
[08/20/2024 21:45]  Vegeir: Vegeir (Young)
[08/20/2024 21:45]  Urzula: An Lor Xen
[08/20/2024 21:45]  Afsky: An Lor Xen
[08/20/2024 21:45]  Zha Q'ar: Por Ort Grav
[08/20/2024 21:45]  Barry McKochner: [Druid, BEAR]
[08/20/2024 21:45]  Barry McKochner: Barry McKochner
[08/20/2024 21:45]  Urzula: An Lor Xen
[08/20/2024 21:45]  Urzula: [The Tavern], [tT]
[08/20/2024 21:45]  Urzula: Urzula
[08/20/2024 21:45]  Afsky: An Lor Xen
[08/20/2024 21:45]  a mongbat: a mongbat
[08/20/2024 21:45]  Urzula: An Lor Xen
[08/20/2024 21:45]  Urzula: [The Tavern], [tT]
[08/20/2024 21:45]  Urzula: Urzula
[08/20/2024 21:45]  Afsky: An Lor Xen
[08/20/2024 21:45]  Urzula: [The Tavern], [tT]
[08/20/2024 21:45]  Urzula: Urzula
[08/20/2024 21:45]  Warner the Watch: The Knights Guild stands ever in the light of Virtue
[08/20/2024 21:45]  Dopamine: Roll Player
[08/20/2024 21:45]  Dopamine: [FS!]
[08/20/2024 21:45]  Dopamine: Dopamine
[08/20/2024 21:45]  Zha Q'ar: An Lor Xen
[08/20/2024 21:45]  Afsky: An Lor Xen
[08/20/2024 21:45]  Chimmy: Transmuter
[08/20/2024 21:45]  Chimmy: Chimmy
[08/20/2024 21:45]  Warner the Watch: *area taunt*
[08/20/2024 21:45]  Zha Q'ar: An Lor Xen
[08/20/2024 21:45]  Afsky: An Lor Xen
[08/20/2024 21:45]  System: [CCC] A Corpse Creek Contest will begin in 15 minutes. Type [BattleHotbar to view the Battle Hotbar for this event.
[08/20/2024 21:45]  Zha Q'ar: An Lor Xen
[08/20/2024 21:45]  Afsky: An Lor Xen
[08/20/2024 21:45]  You see: a mongbat corpse
[08/20/2024 21:45]  Dopamine: Kal Vas Xen Ylem
[08/20/2024 21:45]  Zha Q'ar: An Lor Xen
[08/20/2024 21:45]  Afsky: An Lor Xen
[08/20/2024 21:45]  an earth elemental: (summoned)
[08/20/2024 21:45]  an earth elemental: an earth elemental
[08/20/2024 21:45]  Dopamine: Kal Vas Xen Ylem
[08/20/2024 21:45]  Zha Q'ar: An Lor Xen
[08/20/2024 21:45]  Afsky: An Lor Xen
[08/20/2024 21:45]  an earth elemental: (summoned)
[08/20/2024 21:45]  an earth elemental: an earth elemental
[08/20/2024 21:45]  Zha Q'ar: An Lor Xen
[08/20/2024 21:45]  Afsky: An Lor Xen
[08/20/2024 21:45]  Vegeir: Vegeir (Young)
[08/20/2024 21:45]  Warner the Watch: *area taunt*
[08/20/2024 21:46]  Zha Q'ar: An Lor Xen
[08/20/2024 21:46]  Afsky: An Lor Xen
[08/20/2024 21:46]  SpellCooker: SpellCooker
[08/20/2024 21:46]  Zha Q'ar: An Lor Xen
[08/20/2024 21:46]  Afsky: An Lor Xen
[08/20/2024 21:46]  Zha Q'ar: An Lor Xen
[08/20/2024 21:46]  Afsky: An Lor Xen
[08/20/2024 21:46]  Ashley Stabah: Ashley Stabah
[08/20/2024 21:46]  You see: a mongbat corpse
[08/20/2024 21:46]  Musiukas: Musiukas (Young)
[08/20/2024 21:46]  Zha Q'ar: An Lor Xen
[08/20/2024 21:46]  Afsky: An Lor Xen
[08/20/2024 21:46]  Urzula: An Lor Xen
[08/20/2024 21:46]  Newdie: Newdie (Young)
[08/20/2024 21:46]  [Razor]: New target set.
[08/20/2024 21:46]  Razor: Target: a wounded harpy
[08/20/2024 21:46]  Zha Q'ar: An Lor Xen
[08/20/2024 21:46]  Afsky: An Lor Xen
[08/20/2024 21:46]  System: What instrument shall you play?
[08/20/2024 21:46]  Urzula: An Lor Xen
[08/20/2024 21:46]  Urzula: [The Tavern], [tT]
[08/20/2024 21:46]  Urzula: Urzula
[08/20/2024 21:46]  Chimmy: Transmuter
[08/20/2024 21:46]  Chimmy: Chimmy
[08/20/2024 21:46]  Urzula: An Lor Xen
[08/20/2024 21:46]  Urzula: [The Tavern], [tT]
[08/20/2024 21:46]  Urzula: Urzula
[08/20/2024 21:46]  System: Swinging Nuts has completed the achievement: Black Marketeer (Basic).
[08/20/2024 21:46]  Zha Q'ar: An Lor Xen
[08/20/2024 21:46]  Afsky: An Lor Xen
[08/20/2024 21:46]  Newdie: Newdie (Young)
[08/20/2024 21:46]  Warner the Watch: *area taunt*
[08/20/2024 21:46]  Urzula: [The Tavern], [tT]
[08/20/2024 21:46]  Urzula: Urzula
[08/20/2024 21:46]  Zha Q'ar: An Lor Xen
[08/20/2024 21:46]  Afsky: An Lor Xen
[08/20/2024 21:46]  You see: gold coin : 98
[08/20/2024 21:46]  System: You may not loot this corpse.
[08/20/2024 21:46]  System: You may not loot this corpse.
[08/20/2024 21:46]  System: Players cannot commit aggressive actions in that location.
[08/20/2024 21:46]  System: You may not loot this corpse.
[08/20/2024 21:46]  System: Players cannot commit aggressive actions in that location.
[08/20/2024 21:46]  System: You may not loot this corpse.
[08/20/2024 21:46]  System: You may not loot this corpse.
[08/20/2024 21:46]  System: Players cannot commit aggressive actions in that location.
[08/20/2024 21:46]  System: You may not loot this corpse.
[08/20/2024 21:46]  System: Players cannot commit aggressive actions in that location.
[08/20/2024 21:46]  System: You may not loot this corpse.
[08/20/2024 21:46]  System: You may not loot this corpse.
[08/20/2024 21:46]  System: Players cannot commit aggressive actions in that location.
[08/20/2024 21:46]  System: You may not loot this corpse.
[08/20/2024 21:46]  System: Players cannot commit aggressive actions in that location.
[08/20/2024 21:46]  Zha Q'ar: An Lor Xen
[08/20/2024 21:46]  System: You may not loot this corpse.
[08/20/2024 21:46]  System: You may not loot this corpse.
[08/20/2024 21:46]  System: Players cannot commit aggressive actions in that location.
[08/20/2024 21:46]  System: You may not loot this corpse.
[08/20/2024 21:46]  System: Players cannot commit aggressive actions in that location.
[08/20/2024 21:46]  Afsky: An Lor Xen
[08/20/2024 21:46]  System: You may not loot this corpse.
[08/20/2024 21:46]  System: You may not loot this corpse.
[08/20/2024 21:46]  System: Players cannot commit aggressive actions in that location.
[08/20/2024 21:46]  System: You may not loot this corpse.
[08/20/2024 21:46]  System: Players cannot commit aggressive actions in that location.
[08/20/2024 21:46]  System: You are now under the protection of the town guards.
[08/20/2024 21:46]  a hind: a hind
[08/20/2024 21:46]  a great hart: a great hart
[08/20/2024 21:46]  an eagle: an eagle
[08/20/2024 21:46]  a pack llama: (tame)
[08/20/2024 21:46]  a pack llama: [0/2000 stones]
[08/20/2024 21:46]  a pack llama: a pack llama
[08/20/2024 21:46]  Johnny Tradesman: Johnny Tradesman
[08/20/2024 21:46]  Devil of Avadon: Weaponmaster
[08/20/2024 21:46]  Devil of Avadon: Devil of Avadon
[08/20/2024 21:46]  a forest ostard: *released*
[08/20/2024 21:46]  a forest ostard: a forest ostard
[08/20/2024 21:46]  Zachariah: Zachariah the guard
[08/20/2024 21:46]  Cyllia: Cyllia
[08/20/2024 21:46]  Caelrhys: Caelrhys
[08/20/2024 21:46]  Kflow: [Book Worm, CtS]
[08/20/2024 21:46]  Kflow: Kflow
[08/20/2024 21:46]  Mappen Dalk: [Loyal, NKB]
[08/20/2024 21:46]  Mappen Dalk: Mappen Dalk
[08/20/2024 21:46]  Barry McKochner: [Druid, BEAR]
[08/20/2024 21:46]  Barry McKochner: Barry McKochner
[08/20/2024 21:46]  Marti: Marti the healer
[08/20/2024 21:46]  Kflow: Or, if you've been in outlands a while, consider joining us help the influx of new players grow today!
[08/20/2024 21:46]  Ailiin: Ailiin (Young)
[08/20/2024 21:46]  Jayne: Jayne the innkeeper
[08/20/2024 21:46]  Fuller: Fuller the barkeep
[08/20/2024 21:46]  insPC: insPC
[08/20/2024 21:46]  Raichelle: Raichelle (Young)
[08/20/2024 21:46]  Dusty: Dusty the cook
[08/20/2024 21:46]  Giles: Giles the thief
[08/20/2024 21:46]  Carlton: Carlton the stablemaster
[08/20/2024 21:46]  a blood hunter: (bonded)
[08/20/2024 21:46]  a blood hunter: a blood hunter
[08/20/2024 21:46]  a blood hunter: (bonded)
[08/20/2024 21:46]  a blood hunter: a blood hunter
[08/20/2024 21:46]  an army ant: (bonded)
[08/20/2024 21:46]  an army ant: an army ant
[08/20/2024 21:46]  an army ant: (bonded)
[08/20/2024 21:46]  an army ant: an army ant
[08/20/2024 21:46]  ArmyTank: (bonded)
[08/20/2024 21:46]  ArmyTank: ArmyTank
[08/20/2024 21:46]  Fritz Tamez: [Druid Voyager, BEAR]
[08/20/2024 21:46]  Fritz Tamez: Fritz Tamez
[08/20/2024 21:46]  Jacque Piarais: Jacque Piarais (Young)
[08/20/2024 21:46]  Zara: Zara the scribe
[08/20/2024 21:46]  Sherwin: Sherwin the mage
[08/20/2024 21:46]  oppla: oppla (Young)
[08/20/2024 21:46]  Alicia: Alicia the tavern keeper
[08/20/2024 21:46]  Mike Ox-Long: [Friends, FRND]
[08/20/2024 21:46]  Mike Ox-Long: Mike Ox-Long
[08/20/2024 21:46]  Sherwin: Let me show thee something of how this is done.
[08/20/2024 21:46]  Snow Princess: [La Pecheuse de l'aurore, LDS]
[08/20/2024 21:46]  Snow Princess: Snow Princess
[08/20/2024 21:46]  Ruff Ryda: Ruff Ryda
[08/20/2024 21:46]  Kasinda: Kasinda the alchemist
[08/20/2024 21:46]  Kenelm: Kenelm the tavern keeper
[08/20/2024 21:46]  Menphina: Menphina
[08/20/2024 21:46]  Zann: Zann the Necromancer
[08/20/2024 21:46]  Rosaline: Rosaline the waiter
[08/20/2024 21:46]  Jordan: Jordan the beggar
[08/20/2024 21:46]  Krogu: Krogu (Young)
[08/20/2024 21:46]  Dee Snutz: [Friends, FRND]
[08/20/2024 21:46]  Dee Snutz: Dee Snutz
[08/20/2024 21:46]  a drake: (bonded)
[08/20/2024 21:46]  a drake: a drake
[08/20/2024 21:46]  Nother: (bonded)
[08/20/2024 21:46]  Nother: Nother
[08/20/2024 21:46]  oppla: oppla (Young)
[08/20/2024 21:46]  Elerinna: [La Recruteuse, LDS]
[08/20/2024 21:46]  Elerinna: Elerinna
[08/20/2024 21:46]  oppla: oppla (Young)
[08/20/2024 21:46]  Jayne: Jayne the innkeeper
[08/20/2024 21:46]  Vartrick: Vartrick (Young)
[08/20/2024 21:46]  Bly: Bly the fisherman
[08/20/2024 21:46]  oppla: oppla (Young)
[08/20/2024 21:46]  insPC: insPC
[08/20/2024 21:46]  LegendeLDS: (tame)
[08/20/2024 21:46]  LegendeLDS: LegendeLDS
[08/20/2024 21:46]  MassacreurLDS: (tame)
[08/20/2024 21:46]  MassacreurLDS: MassacreurLDS
[08/20/2024 21:46]  MaitreLDS: (tame)
[08/20/2024 21:46]  MaitreLDS: MaitreLDS
[08/20/2024 21:46]  imS: imS
[08/20/2024 21:46]  poonstar: [PWNHALLA VENDOR MALL, Syn]
[08/20/2024 21:46]  poonstar: poonstar
[08/20/2024 21:46]  Xofrie: Xofrie
[08/20/2024 21:46]  GuerrierLDS: (tame)
[08/20/2024 21:46]  GuerrierLDS: GuerrierLDS
[08/20/2024 21:46]  MagiciensLDS: (tame)
[08/20/2024 21:46]  MagiciensLDS: MagiciensLDS
[08/20/2024 21:46]  Dante Edmonds: Dante Edmonds (Young)
[08/20/2024 21:46]  Lene: Lene the salvage foreman
[08/20/2024 21:46]  Tai: Tai the fisherman
[08/20/2024 21:46]  Wijdan: Wijdan the mapmaker
[08/20/2024 21:46]  Meg: Meg the bowyer
[08/20/2024 21:46]  Madelyn: Madelyn the shipwright
[08/20/2024 21:46]  Chane: Chane the carpenter
[08/20/2024 21:46]  yumyums: Transmuter
[08/20/2024 21:46]  yumyums: [Member, rekt]
[08/20/2024 21:46]  yumyums: yumyums
[08/20/2024 21:46]  Elerinna: ■ Des événements hebdomadaires pour du loot garantie ! 
[08/20/2024 21:46]  Bly: Bly the fisherman
[08/20/2024 21:46]  Lene: Lene the salvage foreman
[08/20/2024 21:46]  Adara: Adara the bard
[08/20/2024 21:46]  Thea: Thea the beggar
[08/20/2024 21:46]  Komor: Komor the tanner
[08/20/2024 21:46]  Kamali: Kamali the butcher
[08/20/2024 21:46]  Thea: Thea the beggar
[08/20/2024 21:46]  Adara: Adara the bard
[08/20/2024 21:46]  Adara: Adara the bard
[08/20/2024 21:46]  Adara: Greetings.  Have a look around.
[08/20/2024 21:47]  System: The world will save in 15 seconds.
[08/20/2024 21:47]  System: The world is saving, please wait.
[08/20/2024 21:47]  System: World save complete. The entire process took 2.5 seconds.
[08/20/2024 21:47]  Adara: Begging thy pardon, but thy bank account lacks these funds.
[08/20/2024 21:47]  : wooden wall
[08/20/2024 21:47]  Adara: Adara the bard
[08/20/2024 21:47]  Adara: Greetings.  Have a look around.
[08/20/2024 21:47]  Adara: The total of thy purchase is 40 gold.  My thanks for the patronage.
[08/20/2024 21:48]  System: Azt has completed the achievement: Guardian of Kraul Hive (Basic).
[08/20/2024 21:48]  Adarna: Backstabber
[08/20/2024 21:48]  Adarna: Lord Adarna
[08/20/2024 21:48]  System: Arculano has completed the achievement: Enhanced (Advanced).
[08/20/2024 21:48]  : Crew on deck!
[08/20/2024 21:48]  Meg: Meg the bowyer
[08/20/2024 21:48]  Chane: Chane the carpenter
[08/20/2024 21:48]  Dante Edmonds: Dante Edmonds (Young)
[08/20/2024 21:48]  Rodin: Legendary Domesticator
[08/20/2024 21:48]  Rodin: [Recruit, AOG]
[08/20/2024 21:48]  Rodin: Lord Rodin
[08/20/2024 21:48]  Lene: Lene the salvage foreman
[08/20/2024 21:48]  Tai: Tai the fisherman
[08/20/2024 21:48]  MagiciensLDS: (tame)
[08/20/2024 21:48]  MagiciensLDS: MagiciensLDS
[08/20/2024 21:48]  poonstar: [PWNHALLA VENDOR MALL, Syn]
[08/20/2024 21:48]  poonstar: poonstar
[08/20/2024 21:48]  Xofrie: Xofrie
[08/20/2024 21:48]  GuerrierLDS: (tame)
[08/20/2024 21:48]  GuerrierLDS: GuerrierLDS
[08/20/2024 21:48]  Adara: Adara the bard
[08/20/2024 21:48]  LegendeLDS: (tame)
[08/20/2024 21:48]  LegendeLDS: LegendeLDS
[08/20/2024 21:48]  MassacreurLDS: (tame)
[08/20/2024 21:48]  MassacreurLDS: MassacreurLDS
[08/20/2024 21:48]  MaitreLDS: (tame)
[08/20/2024 21:48]  MaitreLDS: MaitreLDS
[08/20/2024 21:48]  Bly: Bly the fisherman
[08/20/2024 21:48]  Elerinna: [La Recruteuse, LDS]
[08/20/2024 21:48]  Elerinna: Elerinna
[08/20/2024 21:48]  Dee Snutz: [Friends, FRND]
[08/20/2024 21:48]  Dee Snutz: Dee Snutz
[08/20/2024 21:48]  D Bag: D Bag (Young)
[08/20/2024 21:48]  Snow Princess: [La Pecheuse de l'aurore, LDS]
[08/20/2024 21:48]  Snow Princess: Snow Princess
[08/20/2024 21:48]  Manufacturer: Manufacturer (Young)
[08/20/2024 21:48]  Mike Ox-Long: [Friends, FRND]
[08/20/2024 21:48]  Mike Ox-Long: Mike Ox-Long
[08/20/2024 21:48]  imS: imS
[08/20/2024 21:48]  Colon: Colon the Town Crier
[08/20/2024 21:48]  poonstar: PWNHALLA Vendors Vendor Mall by Pwnstarr Gaming!
[08/20/2024 21:48]  Green Acres: Green Acres
[08/20/2024 21:48]  Hermit Bob: Hermit Bob
[08/20/2024 21:48]  Alicia: Alicia the tavern keeper
[08/20/2024 21:48]  Ruff Ryda: Ruff Ryda
[08/20/2024 21:48]  Amadis: Amadis the armorer
[08/20/2024 21:48]  Jake: Jake the barkeep
[08/20/2024 21:48]  Len: Len the banker
[08/20/2024 21:48]  Ayisha: Ayisha the weaponsmith
[08/20/2024 21:48]  Jolanta: Jolanta the Paladin
[08/20/2024 21:48]  poonstar: There are a few vendor spots still open! Please clothe yourself as a shirtless orc and DM Pwnstarr85 to let him know you placed
[08/20/2024 21:49]  a blood hunter: (bonded)
[08/20/2024 21:49]  a blood hunter: a blood hunter
[08/20/2024 21:49]  a blood hunter: (bonded)
[08/20/2024 21:49]  a blood hunter: a blood hunter
[08/20/2024 21:49]  an army ant: (bonded)
[08/20/2024 21:49]  an army ant: an army ant
[08/20/2024 21:49]  an army ant: (bonded)
[08/20/2024 21:49]  an army ant: an army ant
[08/20/2024 21:49]  ArmyTank: (bonded)
[08/20/2024 21:49]  ArmyTank: ArmyTank
[08/20/2024 21:49]  Fritz Tamez: [Druid Voyager, BEAR]
[08/20/2024 21:49]  Fritz Tamez: Fritz Tamez
[08/20/2024 21:49]  Giles: Giles the thief
[08/20/2024 21:49]  Dusty: Dusty the cook
[08/20/2024 21:49]  Raichelle: Raichelle (Young)
[08/20/2024 21:49]  Rumsla: Rumsla (Young)
[08/20/2024 21:49]  Carlton: Carlton the stablemaster
[08/20/2024 21:49]  Jayne: Jayne the innkeeper
[08/20/2024 21:49]  Meg: Meg the bowyer
[08/20/2024 21:49]  Amadis: Amadis the armorer
[08/20/2024 21:49]  a sheep: a sheep
[08/20/2024 21:49]  Dane: Dane the farmer
[08/20/2024 21:49]  a sheep: a sheep
[08/20/2024 21:49]  a sheep: a sheep
[08/20/2024 21:49]  a sheep: a sheep
[08/20/2024 21:49]  a blood hunter: (bonded)
[08/20/2024 21:49]  a blood hunter: a blood hunter
[08/20/2024 21:49]  a blood hunter: (bonded)
[08/20/2024 21:49]  a blood hunter: a blood hunter
[08/20/2024 21:49]  an army ant: (bonded)
[08/20/2024 21:49]  an army ant: an army ant
[08/20/2024 21:49]  an army ant: (bonded)
[08/20/2024 21:49]  an army ant: an army ant
[08/20/2024 21:49]  ArmyTank: (bonded)
[08/20/2024 21:49]  ArmyTank: ArmyTank
[08/20/2024 21:49]  Fritz Tamez: [Druid Voyager, BEAR]
[08/20/2024 21:49]  Fritz Tamez: Fritz Tamez
[08/20/2024 21:49]  Giles: Giles the thief
[08/20/2024 21:49]  Dusty: Dusty the cook
[08/20/2024 21:49]  Ruff Ryda: Ruff Ryda
[08/20/2024 21:49]  Jayne: Jayne the innkeeper
[08/20/2024 21:49]  Rumsla: Rumsla (Young)
[08/20/2024 21:49]  imS: imS
[08/20/2024 21:49]  System: Greek Broghurt has completed the achievement: Alchemist (Advanced).
[08/20/2024 21:49]  Caelrhys: Caelrhys
[08/20/2024 21:49]  Mappen Dalk: [Loyal, NKB]
[08/20/2024 21:49]  Mappen Dalk: Mappen Dalk
[08/20/2024 21:49]  Johnny Tradesman: Johnny Tradesman
[08/20/2024 21:49]  oppla: oppla (Young)
[08/20/2024 21:49]  Cyllia: Cyllia
[08/20/2024 21:49]  Fathom.: Cambria
[08/20/2024 21:49]  Fathom.: [P]
[08/20/2024 21:49]  Fathom.: Fathom.
[08/20/2024 21:49]  Barry McKochner: [Druid, BEAR]
[08/20/2024 21:49]  Barry McKochner: Barry McKochner
[08/20/2024 21:49]  a forest ostard: *released*
[08/20/2024 21:49]  a forest ostard: a forest ostard
[08/20/2024 21:49]  Kflow: [Book Worm, CtS]
[08/20/2024 21:49]  Kflow: Kflow
[08/20/2024 21:49]  Zachariah: Zachariah the guard
[08/20/2024 21:49]  an earth elemental: (summoned)
[08/20/2024 21:49]  an earth elemental: an earth elemental
[08/20/2024 21:49]  oldtank: (summoned)
[08/20/2024 21:49]  oldtank: oldtank
[08/20/2024 21:49]  Geka Twelvyn: Relic Hunter
[08/20/2024 21:49]  Geka Twelvyn: [Private, L%C]
[08/20/2024 21:49]  Geka Twelvyn: Geka Twelvyn
[08/20/2024 21:49]  Marti: Marti the healer
[08/20/2024 21:49]  a pack llama: (tame)
[08/20/2024 21:49]  a pack llama: [0/2000 stones]
[08/20/2024 21:49]  a pack llama: a pack llama
[08/20/2024 21:49]  Devil of Avadon: Weaponmaster
[08/20/2024 21:49]  Devil of Avadon: Devil of Avadon
[08/20/2024 21:49]  Vegeir: Vegeir (Young)
[08/20/2024 21:49]  Kflow: Everything you need to drop your loot off and get back to farming!
[08/20/2024 21:49]  Ruff Ryda: Ruff Ryda
[08/20/2024 21:49]  an eagle: an eagle
[08/20/2024 21:49]  Kflow: You can even access your room from our steward, if need be!
[08/20/2024 21:49]  a hind: a hind
[08/20/2024 21:49]  System: You have left the protection of the town guards.
[08/20/2024 21:49]  Razor: [Last Target]
[08/20/2024 21:49]  You see: a mongbat corpse
[08/20/2024 21:49]  You see: the remains of Mavis Meow
[08/20/2024 21:49]  You see: a rotting corpse
[08/20/2024 21:49]  You see: a mongbat corpse
[08/20/2024 21:49]  You see: a mongbat corpse
[08/20/2024 21:49]  You see: a mongbat corpse
[08/20/2024 21:49]  You see: a mongbat corpse
[08/20/2024 21:49]  You see: a mongbat corpse
[08/20/2024 21:49]  You see: a mongbat corpse
[08/20/2024 21:49]  You see: a mongbat corpse
[08/20/2024 21:49]  Oliver Ore Smack: Oliver Ore Smack
[08/20/2024 21:49]  Zha Q'ar: [Patient Zero, Yew]
[08/20/2024 21:49]  Zha Q'ar: Lord Zha Q'ar
[08/20/2024 21:49]  a wounded harpy: a wounded harpy
[08/20/2024 21:49]  Bad Box: Bad Box (Young)
[08/20/2024 21:49]  Branyoli: Branyoli (Young)
[08/20/2024 21:49]  a mongbat: a mongbat
[08/20/2024 21:49]  Bumblepops: Bumblepops
[08/20/2024 21:49]  Afsky: Afsky
[08/20/2024 21:49]  an earth elemental: (summoned)
[08/20/2024 21:49]  an earth elemental: an earth elemental
[08/20/2024 21:49]  an earth elemental: (summoned)
[08/20/2024 21:49]  an earth elemental: an earth elemental
[08/20/2024 21:49]  Remi Locke: Remi Locke
[08/20/2024 21:49]  a gravebug: (bonded)
[08/20/2024 21:49]  a gravebug: a gravebug
[08/20/2024 21:49]  Dark Dalk: [Loyal, NKB]
[08/20/2024 21:49]  Dark Dalk: Dark Dalk
[08/20/2024 21:49]  Leide: Legendary Tailor
[08/20/2024 21:49]  Leide: [Recruit, EVIL]
[08/20/2024 21:49]  Leide: Lady Leide
[08/20/2024 21:49]  Warner the Watch: [Knight, Sir.]
[08/20/2024 21:49]  Warner the Watch: Warner the Watch
[08/20/2024 21:49]  Passaconaway: Passaconaway (Young)
[08/20/2024 21:49]  a forest ostard: (bonded)
[08/20/2024 21:49]  a forest ostard: a forest ostard
[08/20/2024 21:49]  FrancisZhou: FrancisZhou
[08/20/2024 21:49]  a horse: (tame)
[08/20/2024 21:49]  a horse: a horse
[08/20/2024 21:49]  SpellCooker: SpellCooker
[08/20/2024 21:49]  Newdie: Newdie (Young)
[08/20/2024 21:49]  LeArke: LeArke
[08/20/2024 21:49]  Apex Apox Aprix: Apex Apox Aprix (Young)
[08/20/2024 21:49]  Amarante: Amarante
[08/20/2024 21:49]  BalBowa: BalBowa (Young)
[08/20/2024 21:49]  an undead miner: an undead miner (Young)
[08/20/2024 21:49]  UlfrikStabson: UlfrikStabson (Young)
[08/20/2024 21:49]  Ashley Stabah: Ashley Stabah
[08/20/2024 21:49]  Urzula: [The Tavern], [tT]
[08/20/2024 21:49]  Urzula: Urzula
[08/20/2024 21:49]  Chicco Gatto: Alchemist
[08/20/2024 21:49]  Chicco Gatto: [Normal Progressing, -_-]
[08/20/2024 21:49]  Chicco Gatto: Lord Chicco Gatto
[08/20/2024 21:49]  Dopamine: Roll Player
[08/20/2024 21:49]  Dopamine: [FS!]
[08/20/2024 21:49]  Dopamine: Dopamine
[08/20/2024 21:49]  Afsky: An Lor Xen
[08/20/2024 21:49]  Urzula: An Lor Xen
[08/20/2024 21:49]  Zha Q'ar: An Lor Xen
[08/20/2024 21:49]  Afsky: An Lor Xen
[08/20/2024 21:49]  Zha Q'ar: [Patient Zero, Yew]
[08/20/2024 21:49]  Zha Q'ar: Lord Zha Q'ar
[08/20/2024 21:49]  Urzula: An Lor Xen
[08/20/2024 21:49]  System: You are now under the protection of the town guards.
[08/20/2024 21:49]  a hind: a hind
[08/20/2024 21:49]  a great hart: a great hart
[08/20/2024 21:49]  an eagle: an eagle
[08/20/2024 21:49]  a pack llama: (tame)
[08/20/2024 21:49]  a pack llama: [0/2000 stones]
[08/20/2024 21:49]  a pack llama: a pack llama
[08/20/2024 21:49]  Johnny Tradesman: Johnny Tradesman
[08/20/2024 21:49]  Devil of Avadon: Weaponmaster
[08/20/2024 21:49]  Devil of Avadon: Devil of Avadon
[08/20/2024 21:49]  a forest ostard: *released*
[08/20/2024 21:49]  a forest ostard: a forest ostard
[08/20/2024 21:49]  Zachariah: Zachariah the guard
[08/20/2024 21:49]  Cyllia: Cyllia
[08/20/2024 21:49]  Caelrhys: Caelrhys
[08/20/2024 21:49]  Fathom.: Cambria
[08/20/2024 21:49]  Fathom.: [P]
[08/20/2024 21:49]  Fathom.: Fathom.
[08/20/2024 21:49]  Kflow: [Book Worm, CtS]
[08/20/2024 21:49]  Kflow: Kflow
[08/20/2024 21:49]  Mappen Dalk: [Loyal, NKB]
[08/20/2024 21:49]  Mappen Dalk: Mappen Dalk
[08/20/2024 21:49]  Barry McKochner: [Druid, BEAR]
[08/20/2024 21:49]  Barry McKochner: Barry McKochner
[08/20/2024 21:49]  oppla: oppla (Young)
[08/20/2024 21:49]  Kflow: Get accustomed to Outlands and grow with helpful tips and tricks from new players just like you!
[08/20/2024 21:49]  System: You have left the protection of the town guards.
[08/20/2024 21:49]  Razor: [Last Target]
[08/20/2024 21:49]  You see: a mongbat corpse
[08/20/2024 21:49]  You see: the remains of Mavis Meow
[08/20/2024 21:49]  You see: a mongbat corpse
[08/20/2024 21:49]  You see: a mongbat corpse
[08/20/2024 21:49]  You see: a mongbat corpse
[08/20/2024 21:49]  You see: a mongbat corpse
[08/20/2024 21:49]  You see: a mongbat corpse
[08/20/2024 21:49]  You see: a mongbat corpse
[08/20/2024 21:49]  You see: a mongbat corpse
[08/20/2024 21:49]  Oliver Ore Smack: Oliver Ore Smack
[08/20/2024 21:49]  Zha Q'ar: [Patient Zero, Yew]
[08/20/2024 21:49]  Zha Q'ar: Lord Zha Q'ar
[08/20/2024 21:49]  a wounded harpy: a wounded harpy
[08/20/2024 21:49]  Bad Box: Bad Box (Young)
[08/20/2024 21:49]  Branyoli: Branyoli (Young)
[08/20/2024 21:49]  a mongbat: a mongbat
[08/20/2024 21:49]  Bumblepops: Bumblepops
[08/20/2024 21:49]  Afsky: Afsky
[08/20/2024 21:49]  an earth elemental: (summoned)
[08/20/2024 21:49]  an earth elemental: an earth elemental
[08/20/2024 21:49]  an earth elemental: (summoned)
[08/20/2024 21:49]  an earth elemental: an earth elemental
[08/20/2024 21:49]  Remi Locke: Remi Locke
[08/20/2024 21:49]  a gravebug: (bonded)
[08/20/2024 21:49]  a gravebug: a gravebug
[08/20/2024 21:49]  Dark Dalk: [Loyal, NKB]
[08/20/2024 21:49]  Dark Dalk: Dark Dalk
[08/20/2024 21:49]  Leide: Legendary Tailor
[08/20/2024 21:49]  Leide: [Recruit, EVIL]
[08/20/2024 21:49]  Leide: Lady Leide
[08/20/2024 21:49]  Warner the Watch: [Knight, Sir.]
[08/20/2024 21:49]  Warner the Watch: Warner the Watch
[08/20/2024 21:49]  Passaconaway: Passaconaway (Young)
[08/20/2024 21:49]  a forest ostard: (bonded)
[08/20/2024 21:49]  a forest ostard: a forest ostard
[08/20/2024 21:49]  FrancisZhou: FrancisZhou
[08/20/2024 21:49]  a horse: (tame)
[08/20/2024 21:49]  a horse: a horse
[08/20/2024 21:49]  SpellCooker: SpellCooker
[08/20/2024 21:49]  LeArke: LeArke
[08/20/2024 21:49]  Apex Apox Aprix: Apex Apox Aprix (Young)
[08/20/2024 21:49]  Amarante: Amarante
[08/20/2024 21:49]  BalBowa: BalBowa (Young)
[08/20/2024 21:49]  an undead miner: an undead miner (Young)
[08/20/2024 21:49]  UlfrikStabson: UlfrikStabson (Young)
[08/20/2024 21:49]  Ashley Stabah: Ashley Stabah
[08/20/2024 21:49]  Urzula: [The Tavern], [tT]
[08/20/2024 21:49]  Urzula: Urzula
[08/20/2024 21:49]  Chicco Gatto: Alchemist
[08/20/2024 21:49]  Chicco Gatto: [Normal Progressing, -_-]
[08/20/2024 21:49]  Chicco Gatto: Lord Chicco Gatto
[08/20/2024 21:49]  Dopamine: Roll Player
[08/20/2024 21:49]  Dopamine: [FS!]
[08/20/2024 21:49]  Dopamine: Dopamine
[08/20/2024 21:49]  System: Players cannot commit aggressive actions in that location.
[08/20/2024 21:49]  System: Players cannot commit aggressive actions in that location.
[08/20/2024 21:49]  System: Players cannot commit aggressive actions in that location.
[08/20/2024 21:49]  System: You may not loot this corpse.
[08/20/2024 21:49]  System: You may not loot this corpse.
[08/20/2024 21:49]  You see: a mongbat corpse
[08/20/2024 21:49]  System: Players cannot commit aggressive actions in that location.
[08/20/2024 21:49]  System: Players cannot commit aggressive actions in that location.
[08/20/2024 21:49]  System: Players cannot commit aggressive actions in that location.
[08/20/2024 21:49]  System: You may not loot this corpse.
[08/20/2024 21:49]  System: You may not loot this corpse.
[08/20/2024 21:49]  System: Players cannot commit aggressive actions in that location.
[08/20/2024 21:49]  System: Players cannot commit aggressive actions in that location.
[08/20/2024 21:49]  System: Players cannot commit aggressive actions in that location.
[08/20/2024 21:49]  System: You may not loot this corpse.
[08/20/2024 21:49]  System: You may not loot this corpse.
[08/20/2024 21:49]  Urzula: An Lor Xen
[08/20/2024 21:49]  Afsky: An Lor Xen
[08/20/2024 21:49]  Warner the Watch: *area taunt*
[08/20/2024 21:49]  Zha Q'ar: An Lor Xen
[08/20/2024 21:49]  [Razor]: New target set.
[08/20/2024 21:49]  Razor: Target: a mongbat
[08/20/2024 21:49]  Urzula: An Lor Xen
[08/20/2024 21:49]  System: What instrument shall you play?
[08/20/2024 21:49]  You see: a mongbat corpse
[08/20/2024 21:49]  Afsky: An Lor Xen
[08/20/2024 21:49]  Zha Q'ar: An Lor Xen
[08/20/2024 21:49]  Urzula: An Lor Xen
[08/20/2024 21:49]  System: What do you wish to pacify? (you may target yourself for an area effect or the ground for a group effect)
[08/20/2024 21:49]  Afsky: An Lor Xen
[08/20/2024 21:49]  Newdie: Newdie (Young)
[08/20/2024 21:49]  Zha Q'ar: An Lor Xen
[08/20/2024 21:49]  Urzula: An Lor Xen
[08/20/2024 21:49]  Afsky: An Lor Xen
[08/20/2024 21:49]  Zha Q'ar: [Patient Zero, Yew]
[08/20/2024 21:49]  Zha Q'ar: Lord Zha Q'ar
[08/20/2024 21:49]  Urzula: An Lor Xen
[08/20/2024 21:49]  System: Players cannot commit aggressive actions in that location.
[08/20/2024 21:49]  System: Players cannot commit aggressive actions in that location.
[08/20/2024 21:49]  System: Players cannot commit aggressive actions in that location.
[08/20/2024 21:49]  System: You may not loot this corpse.
[08/20/2024 21:49]  System: You may not loot this corpse.
[08/20/2024 21:49]  System: Players cannot commit aggressive actions in that location.
[08/20/2024 21:49]  System: Players cannot commit aggressive actions in that location.
[08/20/2024 21:49]  System: Players cannot commit aggressive actions in that location.
[08/20/2024 21:49]  System: You may not loot this corpse.
[08/20/2024 21:49]  System: You may not loot this corpse.
[08/20/2024 21:49]  a mongbat: a mongbat
[08/20/2024 21:49]  System: Players cannot commit aggressive actions in that location.
[08/20/2024 21:49]  System: Players cannot commit aggressive actions in that location.
[08/20/2024 21:49]  System: Players cannot commit aggressive actions in that location.
[08/20/2024 21:49]  System: You may not loot this corpse.
[08/20/2024 21:49]  System: You may not loot this corpse.
[08/20/2024 21:49]  System: Players cannot commit aggressive actions in that location.
[08/20/2024 21:49]  System: Players cannot commit aggressive actions in that location.
[08/20/2024 21:49]  System: Players cannot commit aggressive actions in that location.
[08/20/2024 21:49]  System: You may not loot this corpse.
[08/20/2024 21:49]  System: You may not loot this corpse.
[08/20/2024 21:49]  Urzula: An Lor Xen
[08/20/2024 21:49]  Afsky: An Lor Xen
[08/20/2024 21:49]  Urzula: An Lor Xen
[08/20/2024 21:49]  Afsky: An Lor Xen
[08/20/2024 21:49]  Zha Q'ar: An Lor Xen
[08/20/2024 21:49]  Krogu: Krogu (Young)
[08/20/2024 21:49]  Warner the Watch: *area taunt*
[08/20/2024 21:49]  Urzula: An Lor Xen
[08/20/2024 21:49]  Afsky: An Lor Xen
[08/20/2024 21:49]  Zha Q'ar: An Lor Xen
[08/20/2024 21:49]  Urzula: An Lor Xen
[08/20/2024 21:50]  Zha Q'ar: [Patient Zero, Yew]
[08/20/2024 21:50]  Zha Q'ar: Lord Zha Q'ar
[08/20/2024 21:50]  Afsky: An Lor Xen
[08/20/2024 21:50]  Urzula: An Lor Xen
[08/20/2024 21:50]  Afsky: An Lor Xen
[08/20/2024 21:50]  Urzula: An Lor Xen
[08/20/2024 21:50]  Urzula: An Lor Xen
[08/20/2024 21:50]  Afsky: An Lor Xen
[08/20/2024 21:50]  Zha Q'ar: An Lor Xen
[08/20/2024 21:50]  Urzula: An Lor Xen
[08/20/2024 21:50]  Afsky: An Lor Xen
[08/20/2024 21:50]  Urzula: An Lor Xen
[08/20/2024 21:50]  Zha Q'ar: An Lor Xen
[08/20/2024 21:50]  Warner the Watch: *area taunt*
[08/20/2024 21:50]  Afsky: An Lor Xen
[08/20/2024 21:50]  Urzula: An Lor Xen
[08/20/2024 21:50]  Zha Q'ar: An Lor Xen
[08/20/2024 21:50]  Afsky: An Lor Xen
[08/20/2024 21:50]  Urzula: An Lor Xen
[08/20/2024 21:50]  Krogu: Flam Sanct
[08/20/2024 21:50]  Zha Q'ar: An Lor Xen
[08/20/2024 21:50]  Zha Q'ar: [Patient Zero, Yew]
[08/20/2024 21:50]  Zha Q'ar: Lord Zha Q'ar
[08/20/2024 21:50]  Afsky: An Lor Xen
[08/20/2024 21:50]  Urzula: An Lor Xen
[08/20/2024 21:50]  Zha Q'ar: An Lor Xen
[08/20/2024 21:50]  Urzula: An Lor Xen
[08/20/2024 21:50]  Afsky: An Lor Xen
[08/20/2024 21:50]  Urzula: An Lor Xen
[08/20/2024 21:50]  Zha Q'ar: An Lor Xen
[08/20/2024 21:50]  Caelrhys: Caelrhys
[08/20/2024 21:50]  Afsky: An Lor Xen
[08/20/2024 21:50]  You see: a mongbat corpse
[08/20/2024 21:50]  Urzula: An Lor Xen
[08/20/2024 21:50]  System: Your campfire is now secure.
[08/20/2024 21:50]  Zha Q'ar: An Lor Xen
[08/20/2024 21:50]  Penta Zero Miedo: Penta Zero Miedo
[08/20/2024 21:50]  Afsky: An Lor Xen
[08/20/2024 21:50]  Urzula: An Lor Xen
[08/20/2024 21:50]  Warner the Watch: *area taunt*
[08/20/2024 21:50]  System: Your campfire is now secure.
[08/20/2024 21:50]  Zha Q'ar: An Lor Xen
[08/20/2024 21:50]  Zha Q'ar: [Patient Zero, Yew]
[08/20/2024 21:50]  Zha Q'ar: Lord Zha Q'ar
[08/20/2024 21:50]  Afsky: An Lor Xen
[08/20/2024 21:50]  Caelrhys: Caelrhys
[08/20/2024 21:50]  Urzula: An Lor Xen
[08/20/2024 21:50]  Zha Q'ar: [Patient Zero, Yew]
[08/20/2024 21:50]  Zha Q'ar: Lord Zha Q'ar
[08/20/2024 21:50]  Urzula: An Lor Xen
[08/20/2024 21:50]  Afsky: An Lor Xen
[08/20/2024 21:50]  a mongbat: a mongbat
[08/20/2024 21:50]  Zha Q'ar: An Lor Xen
[08/20/2024 21:50]  Urzula: An Lor Xen
[08/20/2024 21:50]  Afsky: An Lor Xen
[08/20/2024 21:50]  a horse: (tame)
[08/20/2024 21:50]  a horse: a horse
[08/20/2024 21:50]  Fray Marcos: [Te miro y te santiguo, TOP]
[08/20/2024 21:50]  Fray Marcos: Fray Marcos
[08/20/2024 21:50]  Warner the Watch: The Knights Guild stands ever in the light of Virtue
[08/20/2024 21:50]  Urzula: An Lor Xen
[08/20/2024 21:50]  Afsky: An Lor Xen
[08/20/2024 21:50]  Urzula: An Lor Xen
[08/20/2024 21:50]  Zha Q'ar: [Patient Zero, Yew]
[08/20/2024 21:50]  Zha Q'ar: Lord Zha Q'ar
[08/20/2024 21:50]  Afsky: An Lor Xen
[08/20/2024 21:50]  Urzula: An Lor Xen
[08/20/2024 21:50]  a mongbat: a mongbat
[08/20/2024 21:50]  Warner the Watch: *area taunt*
[08/20/2024 21:50]  Afsky: An Lor Xen
[08/20/2024 21:50]  Urzula: An Lor Xen
[08/20/2024 21:50]  Chimmy: Transmuter
[08/20/2024 21:50]  Chimmy: Chimmy
[08/20/2024 21:50]  You see: a mongbat corpse
[08/20/2024 21:50]  Urzula: An Lor Xen
[08/20/2024 21:50]  Afsky: An Lor Xen
[08/20/2024 21:50]  Zha Q'ar: An Lor Xen
[08/20/2024 21:50]  Urzula: An Lor Xen
[08/20/2024 21:50]  Zha Q'ar: [Patient Zero, Yew]
[08/20/2024 21:50]  Zha Q'ar: Lord Zha Q'ar
[08/20/2024 21:50]  Afsky: An Lor Xen
[08/20/2024 21:50]  Urzula: An Lor Xen
[08/20/2024 21:51]  Afsky: An Lor Xen
[08/20/2024 21:51]  Urzula: An Lor Xen
[08/20/2024 21:51]  Afsky: An Lor Xen
[08/20/2024 21:51]  Urzula: An Lor Xen
[08/20/2024 21:51]  Ashley Stabah: Ashley Stabah
[08/20/2024 21:51]  You see: a mongbat corpse
[08/20/2024 21:51]  Urzula: An Lor Xen
[08/20/2024 21:51]  System: Players cannot commit aggressive actions in that location.
[08/20/2024 21:51]  Afsky: An Lor Xen
[08/20/2024 21:51]  Warner the Watch: *area taunt*
[08/20/2024 21:51]  Zha Q'ar: An Lor Xen
[08/20/2024 21:51]  Urzula: An Lor Xen
[08/20/2024 21:51]  Afsky: An Lor Xen
[08/20/2024 21:51]  Zha Q'ar: An Lor Xen
[08/20/2024 21:51]  Urzula: An Lor Xen
[08/20/2024 21:51]  Zha Q'ar: [Patient Zero, Yew]
[08/20/2024 21:51]  Zha Q'ar: Lord Zha Q'ar
[08/20/2024 21:51]  Afsky: An Lor Xen
[08/20/2024 21:51]  You see: a mongbat corpse
[08/20/2024 21:51]  System: Players cannot commit aggressive actions in that location.
[08/20/2024 21:51]  a mongbat: a mongbat
[08/20/2024 21:51]  Urzula: An Lor Xen
[08/20/2024 21:51]  Afsky: An Lor Xen
[08/20/2024 21:51]  Urzula: An Lor Xen
[08/20/2024 21:51]  Afsky: An Lor Xen
[08/20/2024 21:51]  Urzula: An Lor Xen
[08/20/2024 21:51]  Urzula: An Lor Xen
[08/20/2024 21:51]  Afsky: An Lor Xen
[08/20/2024 21:51]  Zha Q'ar: An Lor Xen
[08/20/2024 21:51]  Caelrhys: Caelrhys
[08/20/2024 21:51]  UlfrikStabson: UlfrikStabson (Young)
[08/20/2024 21:51]  Warner the Watch: *area taunt*
[08/20/2024 21:51]  Urzula: An Lor Xen
[08/20/2024 21:51]  Zha Q'ar: [Patient Zero, Yew]
[08/20/2024 21:51]  Zha Q'ar: Lord Zha Q'ar
[08/20/2024 21:51]  Afsky: An Lor Xen
[08/20/2024 21:51]  Urzula: An Lor Xen
[08/20/2024 21:51]  Afsky: An Lor Xen
[08/20/2024 21:51]  Urzula: An Lor Xen
[08/20/2024 21:51]  Afsky: An Lor Xen
[08/20/2024 21:51]  Urzula: An Lor Xen
[08/20/2024 21:51]  Zha Q'ar: An Lor Xen
[08/20/2024 21:51]  Urzula: An Lor Xen
[08/20/2024 21:51]  Afsky: An Lor Xen
[08/20/2024 21:51]  Zha Q'ar: An Lor Xen
[08/20/2024 21:51]  Zha Q'ar: [Patient Zero, Yew]
[08/20/2024 21:51]  Zha Q'ar: Lord Zha Q'ar
[08/20/2024 21:51]  Urzula: An Lor Xen
[08/20/2024 21:51]  Afsky: An Lor Xen
[08/20/2024 21:51]  Zha Q'ar: An Lor Xen
[08/20/2024 21:51]  Urzula: An Lor Xen
[08/20/2024 21:51]  Warner the Watch: *area taunt*
[08/20/2024 21:51]  Afsky: An Lor Xen
[08/20/2024 21:51]  Urzula: An Lor Xen
[08/20/2024 21:51]  Zha Q'ar: An Lor Xen
[08/20/2024 21:51]  Caelrhys: Caelrhys
[08/20/2024 21:51]  Afsky: An Lor Xen
[08/20/2024 21:51]  Ashley Stabah: Ashley Stabah
[08/20/2024 21:51]  Urzula: An Lor Xen
[08/20/2024 21:51]  Zha Q'ar: [Patient Zero, Yew]
[08/20/2024 21:51]  Zha Q'ar: Lord Zha Q'ar
[08/20/2024 21:51]  Afsky: An Lor Xen
[08/20/2024 21:51]  Urzula: An Lor Xen
[08/20/2024 21:51]  Urzula: An Lor Xen
[08/20/2024 21:51]  Afsky: An Lor Xen
[08/20/2024 21:51]  Zha Q'ar: An Lor Xen
[08/20/2024 21:51]  Urzula: An Lor Xen
[08/20/2024 21:51]  Afsky: An Lor Xen
[08/20/2024 21:52]  You see: a mongbat corpse
[08/20/2024 21:52]  System: Players cannot commit aggressive actions in that location.
[08/20/2024 21:52]  Zha Q'ar: [Patient Zero, Yew]
[08/20/2024 21:52]  Zha Q'ar: Lord Zha Q'ar
[08/20/2024 21:52]  Urzula: An Lor Xen
[08/20/2024 21:52]  Afsky: An Lor Xen
[08/20/2024 21:52]  Urzula: An Lor Xen
[08/20/2024 21:52]  Warner the Watch: *area taunt*
[08/20/2024 21:52]  Afsky: An Lor Xen
[08/20/2024 21:52]  Urzula: An Lor Xen
[08/20/2024 21:52]  Afsky: An Lor Xen
[08/20/2024 21:52]  Urzula: An Lor Xen
[08/20/2024 21:52]  Zha Q'ar: An Lor Xen
[08/20/2024 21:52]  FastandCurious: FastandCurious (Young)
[08/20/2024 21:52]  System: Your campfire is now secure.
[08/20/2024 21:52]  Urzula: An Lor Xen
[08/20/2024 21:52]  Zha Q'ar: [Patient Zero, Yew]
[08/20/2024 21:52]  Zha Q'ar: Lord Zha Q'ar
[08/20/2024 21:52]  Afsky: An Lor Xen
[08/20/2024 21:52]  Urzula: An Lor Xen
[08/20/2024 21:52]  Afsky: An Lor Xen
[08/20/2024 21:52]  Urzula: An Lor Xen
[08/20/2024 21:52]  Newdie: Newdie (Young)
[08/20/2024 21:52]  Musiukas: Musiukas (Young)
[08/20/2024 21:52]  System: Galen Val'dez has completed the achievement: Affluent (Advanced).
[08/20/2024 21:52]  Afsky: An Lor Xen
[08/20/2024 21:52]  a mongbat: a mongbat
[08/20/2024 21:52]  Urzula: An Lor Xen
[08/20/2024 21:52]  Warner the Watch: *area taunt*
[08/20/2024 21:52]  Afsky: An Lor Xen
[08/20/2024 21:52]  Urzula: An Lor Xen
[08/20/2024 21:52]  UlfrikStabson: UlfrikStabson (Young)
[08/20/2024 21:52]  Zha Q'ar: An Lor Xen
[08/20/2024 21:52]  Urzula: An Lor Xen
[08/20/2024 21:52]  Afsky: An Lor Xen
[08/20/2024 21:52]  Zha Q'ar: [Patient Zero, Yew]
[08/20/2024 21:52]  Zha Q'ar: Lord Zha Q'ar
[08/20/2024 21:52]  Urzula: An Lor Xen
[08/20/2024 21:52]  Afsky: An Lor Xen
[08/20/2024 21:52]  Urzula: An Lor Xen
[08/20/2024 21:52]  Afsky: An Lor Xen
[08/20/2024 21:52]  You see: a mongbat corpse
[08/20/2024 21:52]  Ashley Stabah: Ashley Stabah
[08/20/2024 21:52]  Urzula: An Lor Xen
[08/20/2024 21:52]  Afsky: An Lor Xen
[08/20/2024 21:52]  Urzula: An Lor Xen
[08/20/2024 21:52]  Zha Q'ar: An Lor Xen
[08/20/2024 21:52]  Afsky: An Lor Xen
[08/20/2024 21:52]  System: Your campfire is now secure.
[08/20/2024 21:52]  Warner the Watch: *area taunt*
[08/20/2024 21:52]  Urzula: An Lor Xen
[08/20/2024 21:52]  Zha Q'ar: An Lor Xen
[08/20/2024 21:52]  Zha Q'ar: [Patient Zero, Yew]
[08/20/2024 21:52]  Zha Q'ar: Lord Zha Q'ar
[08/20/2024 21:52]  Afsky: An Lor Xen
[08/20/2024 21:52]  Oliver Ore Smack: Oliver Ore Smack
[08/20/2024 21:52]  Urzula: An Lor Xen
[08/20/2024 21:52]  Zha Q'ar: An Lor Xen
[08/20/2024 21:52]  Urzula: An Lor Xen
[08/20/2024 21:52]  Afsky: An Lor Xen
[08/20/2024 21:52]  You see: a mongbat corpse
[08/20/2024 21:52]  Zha Q'ar: An Lor Xen
[08/20/2024 21:52]  Zha Q'ar: [Patient Zero, Yew]
[08/20/2024 21:52]  Zha Q'ar: Lord Zha Q'ar
[08/20/2024 21:52]  Urzula: An Lor Xen
[08/20/2024 21:52]  Afsky: An Lor Xen
[08/20/2024 21:52]  Zha Q'ar: An Lor Xen
[08/20/2024 21:52]  Urzula: An Lor Xen
[08/20/2024 21:52]  Afsky: An Lor Xen
[08/20/2024 21:52]  Krogu: Krogu (Young)
[08/20/2024 21:52]  Zha Q'ar: [Patient Zero, Yew]
[08/20/2024 21:52]  Zha Q'ar: Lord Zha Q'ar
[08/20/2024 21:52]  Urzula: An Lor Xen
[08/20/2024 21:52]  Afsky: An Lor Xen
[08/20/2024 21:52]  Urzula: An Lor Xen
[08/20/2024 21:52]  Warner the Watch: *area taunt*
[08/20/2024 21:52]  Zha Q'ar: An Lor Xen
[08/20/2024 21:53]  Urzula: An Lor Xen
[08/20/2024 21:53]  Afsky: An Lor Xen
[08/20/2024 21:53]  Urzula: An Lor Xen
[08/20/2024 21:53]  Zha Q'ar: An Lor Xen
[08/20/2024 21:53]  Afsky: An Lor Xen
[08/20/2024 21:53]  Urzula: An Lor Xen
[08/20/2024 21:53]  Zha Q'ar: An Lor Xen
[08/20/2024 21:53]  Ashley Stabah: Ashley Stabah
[08/20/2024 21:53]  Afsky: An Lor Xen
[08/20/2024 21:53]  Zha Q'ar: [Patient Zero, Yew]
[08/20/2024 21:53]  Zha Q'ar: Lord Zha Q'ar
[08/20/2024 21:53]  Afsky: An Lor Xen
[08/20/2024 21:53]  a mongbat: a mongbat
[08/20/2024 21:53]  Newdie: Newdie (Young)
[08/20/2024 21:53]  Afsky: An Lor Xen
[08/20/2024 21:53]  Warner the Watch: The Knights Guild stands ever in the light of Virtue
[08/20/2024 21:53]  Zha Q'ar: An Lor Xen
[08/20/2024 21:53]  Warner the Watch: *area taunt*
[08/20/2024 21:53]  Afsky: An Lor Xen
[08/20/2024 21:53]  a giant bat: a giant bat
[08/20/2024 21:53]  You see: a mongbat corpse
[08/20/2024 21:53]  Zha Q'ar: [Patient Zero, Yew]
[08/20/2024 21:53]  Zha Q'ar: Lord Zha Q'ar
[08/20/2024 21:53]  Afsky: An Lor Xen
[08/20/2024 21:53]  Afsky: An Lor Xen
[08/20/2024 21:53]  Afsky: An Lor Xen
[08/20/2024 21:53]  Chimmy: Transmuter
[08/20/2024 21:53]  Chimmy: Chimmy
[08/20/2024 21:53]  Ashley Stabah: Ashley Stabah
[08/20/2024 21:53]  Afsky: An Lor Xen
[08/20/2024 21:53]  Zha Q'ar: An Lor Xen
[08/20/2024 21:53]  Zha Q'ar: [Patient Zero, Yew]
[08/20/2024 21:53]  Zha Q'ar: Lord Zha Q'ar
[08/20/2024 21:53]  Afsky: An Lor Xen
[08/20/2024 21:53]  Warner the Watch: *area taunt*
[08/20/2024 21:53]  Afsky: An Lor Xen
[08/20/2024 21:53]  Zha Q'ar: An Lor Xen
[08/20/2024 21:53]  Zha Q'ar: An Lor Xen
[08/20/2024 21:53]  Zha Q'ar: An Lor Xen
[08/20/2024 21:53]  Zha Q'ar: [Patient Zero, Yew]
[08/20/2024 21:53]  Zha Q'ar: Lord Zha Q'ar
[08/20/2024 21:53]  Warner the Watch: *area taunt*
[08/20/2024 21:53]  Zha Q'ar: An Lor Xen
[08/20/2024 21:53]  a mongbat: a mongbat
[08/20/2024 21:53]  Afsky: An Lor Xen
[08/20/2024 21:54]  Zha Q'ar: [Patient Zero, Yew]
[08/20/2024 21:54]  Zha Q'ar: Lord Zha Q'ar
[08/20/2024 21:54]  Afsky: An Lor Xen
[08/20/2024 21:54]  Krogu: In Por Ylem
[08/20/2024 21:54]  Afsky: An Lor Xen
[08/20/2024 21:54]  Newdie: Newdie (Young)
[08/20/2024 21:54]  Caelrhys: Caelrhys
[08/20/2024 21:54]  Zha Q'ar: An Lor Xen
[08/20/2024 21:54]  Warner the Watch: *area taunt*
[08/20/2024 21:54]  Zha Q'ar: An Lor Xen
[08/20/2024 21:54]  Krogu: In Por Ylem
[08/20/2024 21:54]  Zha Q'ar: An Lor Xen
[08/20/2024 21:54]  Fray Marcos: In Vas Mani
[08/20/2024 21:54]  Zha Q'ar: [Patient Zero, Yew]
[08/20/2024 21:54]  Zha Q'ar: Lord Zha Q'ar
[08/20/2024 21:54]  Fray Marcos: In Vas Mani
[08/20/2024 21:54]  Krogu: In Por Ylem
[08/20/2024 21:54]  Zha Q'ar: An Lor Xen
[08/20/2024 21:54]  Krogu: In Por Ylem
[08/20/2024 21:54]  Warner the Watch: *area taunt*
[08/20/2024 21:54]  Zha Q'ar: An Lor Xen
[08/20/2024 21:54]  Moce: Moce (Young)
[08/20/2024 21:54]  Zha Q'ar: [Patient Zero, Yew]
[08/20/2024 21:54]  Zha Q'ar: Lord Zha Q'ar
[08/20/2024 21:54]  Krogu: In Por Ylem
[08/20/2024 21:54]  Zha Q'ar: An Lor Xen
[08/20/2024 21:54]  FastandCurious: FastandCurious (Young)
[08/20/2024 21:54]  a mongbat: a mongbat
[08/20/2024 21:54]  System: of the Trap has completed the achievement: Wilderness Hunter (Advanced).
[08/20/2024 21:54]  You see: a mongbat corpse
[08/20/2024 21:54]  Zha Q'ar: [Patient Zero, Yew]
[08/20/2024 21:54]  Zha Q'ar: Lord Zha Q'ar
[08/20/2024 21:54]  Warner the Watch: *area taunt*
[08/20/2024 21:54]  Krogu: Por Ort Grav
[08/20/2024 21:54]  Zha Q'ar: An Lor Xen
[08/20/2024 21:54]  Krogu: Por Ort Grav
[08/20/2024 21:54]  Zha Q'ar: An Lor Xen
[08/20/2024 21:54]  Chimmy: Transmuter
[08/20/2024 21:54]  Chimmy: Chimmy
[08/20/2024 21:54]  Ashley Stabah: Ashley Stabah
[08/20/2024 21:54]  Zha Q'ar: An Lor Xen
[08/20/2024 21:54]  Zha Q'ar: [Patient Zero, Yew]
[08/20/2024 21:54]  Zha Q'ar: Lord Zha Q'ar
[08/20/2024 21:55]  a mongbat: a mongbat
[08/20/2024 21:55]  Zha Q'ar: [Patient Zero, Yew]
[08/20/2024 21:55]  Zha Q'ar: Lord Zha Q'ar
[08/20/2024 21:55]  Krogu: Uus Sanct
[08/20/2024 21:55]  Krogu: Uus Sanct
[08/20/2024 21:55]  Warner the Watch: *area taunt*
[08/20/2024 21:55]  Krogu: Uus Sanct
[08/20/2024 21:55]  Zha Q'ar: An Lor Xen
[08/20/2024 21:55]  CorruptArcane: CorruptArcane (Young)
[08/20/2024 21:55]  Zha Q'ar: An Lor Xen
[08/20/2024 21:55]  Raichelle: Raichelle (Young)
[08/20/2024 21:55]  Zha Q'ar: [Patient Zero, Yew]
[08/20/2024 21:55]  Zha Q'ar: Lord Zha Q'ar
[08/20/2024 21:55]  Krogu: Uus Sanct
[08/20/2024 21:55]  You see: a mongbat corpse
[08/20/2024 21:55]  System: Players cannot commit aggressive actions in that location.
[08/20/2024 21:55]  Krogu: Uus Sanct
[08/20/2024 21:55]  Zha Q'ar: An Lor Xen
[08/20/2024 21:55]  a mongbat: a mongbat
[08/20/2024 21:55]  Warner the Watch: *area taunt*
[08/20/2024 21:55]  Zha Q'ar: An Lor Xen
[08/20/2024 21:55]  Chimmy: Transmuter
[08/20/2024 21:55]  Chimmy: Chimmy
[08/20/2024 21:55]  Ashley Stabah: Ashley Stabah
[08/20/2024 21:55]  System: Defenders of Steel (DoS) guild has reached prestige level 187.
[08/20/2024 21:55]  Zha Q'ar: An Lor Xen
[08/20/2024 21:55]  Zha Q'ar: [Patient Zero, Yew]
[08/20/2024 21:55]  Zha Q'ar: Lord Zha Q'ar
[08/20/2024 21:55]  System: Your campfire is now secure.
[08/20/2024 21:55]  Krogu: Uus Sanct
[08/20/2024 21:55]  Zha Q'ar: An Lor Xen
[08/20/2024 21:55]  Warner the Watch: *area taunt*
[08/20/2024 21:55]  Zha Q'ar: [Patient Zero, Yew]
[08/20/2024 21:55]  Zha Q'ar: Lord Zha Q'ar
[08/20/2024 21:55]  Warner the Watch: Fear not! The Knights Guild shalt protect thee whilst thou trains!
[08/20/2024 21:55]  System: [CCC] A Corpse Creek Contest will begin in 5 minutes. Type [BattleHotbar to view the Battle Hotbar for this event.
[08/20/2024 21:55]  Newdie: Newdie (Young)
[08/20/2024 21:55]  Zha Q'ar: An Lor Xen
[08/20/2024 21:55]  Zha Q'ar: [Patient Zero, Yew]
[08/20/2024 21:55]  Zha Q'ar: Lord Zha Q'ar
[08/20/2024 21:55]  Volkes: Volkes
[08/20/2024 21:55]  D Bag: D Bag (Young)
[08/20/2024 21:55]  System: Samba has completed the achievement: Beastial Slayer (Advanced).
[08/20/2024 21:56]  Krogu: In Por Ylem
[08/20/2024 21:56]  CorruptArcane: CorruptArcane (Young)
[08/20/2024 21:56]  Warner the Watch: *area taunt*
[08/20/2024 21:56]  Ashley Stabah: Ashley Stabah
[08/20/2024 21:56]  Zha Q'ar: An Lor Xen
[08/20/2024 21:56]  Zha Q'ar: An Lor Xen
[08/20/2024 21:56]  You see: a mongbat corpse
[08/20/2024 21:56]  Zha Q'ar: An Lor Xen
[08/20/2024 21:56]  Oliver Ore Smack: Oliver Ore Smack
[08/20/2024 21:56]  Zha Q'ar: An Lor Xen
[08/20/2024 21:56]  Raichelle: Raichelle (Young)
[08/20/2024 21:56]  a mongbat: a mongbat
[08/20/2024 21:56]  Zha Q'ar: An Lor Xen
[08/20/2024 21:56]  Zha Q'ar: [Patient Zero, Yew]
[08/20/2024 21:56]  Zha Q'ar: Lord Zha Q'ar
[08/20/2024 21:56]  You see: a mongbat corpse
[08/20/2024 21:56]  Mattss: Mattss
[08/20/2024 21:56]  Warner the Watch: *area taunt*
[08/20/2024 21:56]  Zha Q'ar: An Lor Xen
[08/20/2024 21:56]  You see: a mongbat corpse
[08/20/2024 21:56]  Zha Q'ar: An Lor Xen
[08/20/2024 21:56]  D Bag: D Bag (Young)
[08/20/2024 21:56]  Zha Q'ar: An Lor Xen
[08/20/2024 21:56]  Zha Q'ar: An Lor Xen
[08/20/2024 21:56]  Krogu: Uus Sanct
[08/20/2024 21:56]  Zha Q'ar: [Patient Zero, Yew]
[08/20/2024 21:56]  Zha Q'ar: Lord Zha Q'ar
[08/20/2024 21:56]  Krogu: Uus Sanct
[08/20/2024 21:56]  Zha Q'ar: An Lor Xen
[08/20/2024 21:56]  Krogu: Uus Sanct
[08/20/2024 21:56]  Warner the Watch: *area taunt*
[08/20/2024 21:56]  Krogu: Uus Sanct
[08/20/2024 21:56]  Raichelle: Raichelle (Young)
[08/20/2024 21:56]  Krogu: Uus Sanct
[08/20/2024 21:56]  Krogu: Uus Sanct
[08/20/2024 21:56]  Zha Q'ar: [Patient Zero, Yew]
[08/20/2024 21:56]  Zha Q'ar: Lord Zha Q'ar
[08/20/2024 21:56]  a mongbat: a mongbat
[08/20/2024 21:56]  Zha Q'ar: An Lor Xen
[08/20/2024 21:56]  Krogu: Uus Sanct
[08/20/2024 21:56]  Ashley Stabah: Ashley Stabah
[08/20/2024 21:56]  D Bag: D Bag (Young)
[08/20/2024 21:56]  Zha Q'ar: An Lor Xen
[08/20/2024 21:56]  Krogu: Uus Sanct
[08/20/2024 21:56]  Krogu: Uus Sanct
[08/20/2024 21:56]  a giant bat: a giant bat
[08/20/2024 21:56]  Krogu: Uus Sanct
[08/20/2024 21:56]  Zha Q'ar: [Patient Zero, Yew]
[08/20/2024 21:56]  Zha Q'ar: Lord Zha Q'ar
[08/20/2024 21:56]  Warner the Watch: *area taunt*
[08/20/2024 21:56]  Krogu: Uus Sanct
[08/20/2024 21:56]  Krogu: Uus Sanct
[08/20/2024 21:56]  You see: a mongbat corpse
[08/20/2024 21:57]  Krogu: Uus Sanct
[08/20/2024 21:57]  You see: a mongbat corpse
[08/20/2024 21:57]  Zha Q'ar: An Lor Xen
[08/20/2024 21:57]  Krogu: Uus Sanct
[08/20/2024 21:57]  Krogu: Uus Sanct
[08/20/2024 21:57]  Zha Q'ar: An Lor Xen
[08/20/2024 21:57]  Krogu: Uus Sanct
[08/20/2024 21:57]  Ashley Stabah: Ashley Stabah
[08/20/2024 21:57]  Chimmy: Transmuter
[08/20/2024 21:57]  Chimmy: Chimmy
[08/20/2024 21:57]  Zha Q'ar: An Lor Xen
[08/20/2024 21:57]  System: You may not loot this corpse.
[08/20/2024 21:57]  System: You may not loot this corpse.
[08/20/2024 21:57]  System: Players cannot commit aggressive actions in that location.
[08/20/2024 21:57]  System: You may not loot this corpse.
[08/20/2024 21:57]  System: You may not loot this corpse.
[08/20/2024 21:57]  System: You may not loot this corpse.
[08/20/2024 21:57]  System: You may not loot this corpse.
[08/20/2024 21:57]  System: You may not loot this corpse.
[08/20/2024 21:57]  System: You may not loot this corpse.
[08/20/2024 21:57]  System: Players cannot commit aggressive actions in that location.
[08/20/2024 21:57]  System: You may not loot this corpse.
[08/20/2024 21:57]  System: You may not loot this corpse.
[08/20/2024 21:57]  System: You may not loot this corpse.
[08/20/2024 21:57]  System: You may not loot this corpse.
[08/20/2024 21:57]  System: You may not loot this corpse.
[08/20/2024 21:57]  System: You may not loot this corpse.
[08/20/2024 21:57]  System: Players cannot commit aggressive actions in that location.
[08/20/2024 21:57]  System: You may not loot this corpse.
[08/20/2024 21:57]  System: You may not loot this corpse.
[08/20/2024 21:57]  System: You may not loot this corpse.
[08/20/2024 21:57]  System: You may not loot this corpse.
[08/20/2024 21:57]  System: You may not loot this corpse.
[08/20/2024 21:57]  System: You may not loot this corpse.
[08/20/2024 21:57]  System: Players cannot commit aggressive actions in that location.
[08/20/2024 21:57]  System: You may not loot this corpse.
[08/20/2024 21:57]  System: You may not loot this corpse.
[08/20/2024 21:57]  System: You may not loot this corpse.
[08/20/2024 21:57]  System: You may not loot this corpse.
[08/20/2024 21:57]  System: You may not loot this corpse.
[08/20/2024 21:57]  System: You may not loot this corpse.
[08/20/2024 21:57]  System: Players cannot commit aggressive actions in that location.
[08/20/2024 21:57]  System: You may not loot this corpse.
[08/20/2024 21:57]  System: You may not loot this corpse.
[08/20/2024 21:57]  System: You may not loot this corpse.
[08/20/2024 21:57]  System: You may not loot this corpse.
[08/20/2024 21:57]  System: Players cannot commit aggressive actions in that location.
[08/20/2024 21:57]  FastandCurious: FastandCurious (Young)
[08/20/2024 21:57]  a mongbat: [Lesser Poison]
[08/20/2024 21:57]  a mongbat: a mongbat
[08/20/2024 21:57]  System: Players cannot commit aggressive actions in that location.
[08/20/2024 21:57]  System: Players cannot commit aggressive actions in that location.
[08/20/2024 21:57]  System: You may not loot this corpse.
[08/20/2024 21:57]  You see: a mongbat corpse
[08/20/2024 21:57]  You see: a mongbat corpse
[08/20/2024 21:57]  You see: a mongbat corpse
[08/20/2024 21:57]  System: You may not loot this corpse.
[08/20/2024 21:57]  System: You may not loot this corpse.
[08/20/2024 21:57]  Zha Q'ar: [Patient Zero, Yew]
[08/20/2024 21:57]  Zha Q'ar: Lord Zha Q'ar
[08/20/2024 21:57]  You see: a mongbat corpse
[08/20/2024 21:57]  System: You may not loot this corpse.
[08/20/2024 21:57]  a giant rat: a giant rat
[08/20/2024 21:57]  Tybee: Tybee (Young)
[08/20/2024 21:57]  Warner the Watch: *area taunt*
[08/20/2024 21:57]  You see: a mongbat corpse
[08/20/2024 21:57]  You see: the remains of FastandCurious
[08/20/2024 21:57]  a giant frog: a giant frog
[08/20/2024 21:57]  a colossal frog: a colossal frog
[08/20/2024 21:57]  CorruptArcane: CorruptArcane (Young)
[08/20/2024 21:57]  You see: a giant rat corpse
[08/20/2024 21:57]  a mongbat: a mongbat
[08/20/2024 21:57]  You see: a headless corpse
[08/20/2024 21:57]  You see: a headless corpse
[08/20/2024 21:57]  You see: a giant rat corpse
[08/20/2024 21:57]  You see: a giant rat corpse
[08/20/2024 21:57]  You see: a headless corpse
[08/20/2024 21:57]  You see: a skeletal corpse
[08/20/2024 21:57]  flat earth: Cambria
[08/20/2024 21:57]  flat earth: [DONT TRUST NASA, Syn]
[08/20/2024 21:57]  flat earth: flat earth
[08/20/2024 21:57]  a headless: a headless
[08/20/2024 21:57]  You see: a corpser corpse
[08/20/2024 21:57]  You see: a headless corpse
[08/20/2024 21:57]  You see: a headless corpse
[08/20/2024 21:57]  Oliver Ore Smack: Oliver Ore Smack
[08/20/2024 21:57]  a giant frog: (tame)
[08/20/2024 21:57]  a giant frog: a giant frog
[08/20/2024 21:57]  You see: a mongbat corpse
[08/20/2024 21:57]  System: Opening door...
[08/20/2024 21:57]  You see: a corpser corpse
[08/20/2024 21:57]  a colossal frog: a colossal frog
[08/20/2024 21:57]  a giant rat: a giant rat
[08/20/2024 21:57]  System: Players cannot commit aggressive actions in that location.
[08/20/2024 21:57]  a giant rat: a giant rat
[08/20/2024 21:57]  System: Players cannot commit aggressive actions in that location.
[08/20/2024 21:57]  a corpser: a corpser
[08/20/2024 21:57]  a giant bat: a giant bat
[08/20/2024 21:57]  System: Players cannot commit aggressive actions in that location.
[08/20/2024 21:57]  System: Players cannot commit aggressive actions in that location.
[08/20/2024 21:57]  Oliver Ore Smack: Will you be my friend?
[08/20/2024 21:57]  System: Players cannot commit aggressive actions in that location.
[08/20/2024 21:57]  System: Players cannot commit aggressive actions in that location.
[08/20/2024 21:57]  System: Players cannot commit aggressive actions in that location.
[08/20/2024 21:57]  System: Players cannot commit aggressive actions in that location.
[08/20/2024 21:57]  You see: a corpser corpse
[08/20/2024 21:57]  System: Players cannot commit aggressive actions in that location.
[08/20/2024 21:57]  System: Players cannot commit aggressive actions in that location.
[08/20/2024 21:57]  System: Opening door...
[08/20/2024 21:57]  [Razor]: New target set.
[08/20/2024 21:57]  Razor: Target: a giant rat
[08/20/2024 21:57]  Oliver Ore Smack: It would be mutually beneficial if we were to join forces.
[08/20/2024 21:57]  System: Macing skillgain: 13.282%
[08/20/2024 21:57]  System: Your skill in Mace Fighting has increased by 0.1.  It is now 72.1.
[08/20/2024 21:57]  System: Tactics skillgain: 16.603%
[08/20/2024 21:57]  System: Anatomy skillgain: 19.926%
[08/20/2024 21:57]  System: Your skill in Anatomy has increased by 0.1.  It is now 72.9.
[08/20/2024 21:57]  System: ArmsLore skillgain: 19.926%
[08/20/2024 21:57]  System: Focus skillgain: 16.603%
[08/20/2024 21:57]  System: Your skill in Focus has increased by 0.1.  It is now 68.9.
[08/20/2024 21:57]  System: Chivalry skillgain: 13.282%
[08/20/2024 21:57]  a giant rat: -44
[08/20/2024 21:57]  a mongbat: a mongbat
[08/20/2024 21:57]  System: Holy symbols remaining: 5/6
[08/20/2024 21:57]  System: Macing skillgain: 13.282%
[08/20/2024 21:57]  System: Tactics skillgain: 16.603%
[08/20/2024 21:57]  System: Anatomy skillgain: 19.926%
[08/20/2024 21:57]  System: ArmsLore skillgain: 19.926%
[08/20/2024 21:57]  System: Focus skillgain: 16.603%
[08/20/2024 21:57]  System: Chivalry skillgain: 13.282%
[08/20/2024 21:57]  a giant rat: -37
[08/20/2024 21:57]  a giant bat: a giant bat
[08/20/2024 21:57]  You see: a corpser corpse
[08/20/2024 21:57]  System: Macing skillgain: 13.282%
[08/20/2024 21:57]  System: Tactics skillgain: 16.603%
[08/20/2024 21:57]  System: Anatomy skillgain: 19.926%
[08/20/2024 21:57]  System: ArmsLore skillgain: 19.926%
[08/20/2024 21:57]  System: Focus skillgain: 16.603%
[08/20/2024 21:57]  System: Chivalry skillgain: 13.282%
[08/20/2024 21:57]  a giant rat: -37
[08/20/2024 21:57]  Ailiin: -10
[08/20/2024 21:57]  System: You have contracted a foul disease!
[08/20/2024 21:57]  Ailiin: *looks violently ill*
[08/20/2024 21:57]  Oliver Ore Smack: *begins taming a creature.*
[08/20/2024 21:57]  You see: a headless corpse
[08/20/2024 21:57]  You see: a headless corpse
[08/20/2024 21:57]  You see: a headless corpse
[08/20/2024 21:57]  You see: a giant rat corpse
[08/20/2024 21:57]  You see: a giant rat corpse
[08/20/2024 21:57]  You see: a skeletal corpse
[08/20/2024 21:57]  You see: a giant rat corpse
[08/20/2024 21:57]  System: Players cannot commit aggressive actions in that location.
[08/20/2024 21:57]  You see: a mongbat corpse
[08/20/2024 21:57]  System: Players cannot commit aggressive actions in that location.
[08/20/2024 21:57]  System: Macing skillgain: 13.354%
[08/20/2024 21:57]  System: Tactics skillgain: 16.693%
[08/20/2024 21:57]  System: Anatomy skillgain: 20.034%
[08/20/2024 21:57]  System: ArmsLore skillgain: 20.034%
[08/20/2024 21:57]  System: Focus skillgain: 16.693%
[08/20/2024 21:57]  System: Chivalry skillgain: 13.354%
[08/20/2024 21:57]  a giant rat: -31
[08/20/2024 21:57]  You see: a mongbat corpse
[08/20/2024 21:57]  System: Players cannot commit aggressive actions in that location.
[08/20/2024 21:57]  System: Players cannot commit aggressive actions in that location.
[08/20/2024 21:57]  System: Players cannot commit aggressive actions in that location.
[08/20/2024 21:57]  System: Players cannot commit aggressive actions in that location.
[08/20/2024 21:57]  System: Max holy symbols earned (6/6)
[08/20/2024 21:57]  [Razor]: New target set.
[08/20/2024 21:57]  System: Macing skillgain: 13.282%
[08/20/2024 21:57]  System: Tactics skillgain: 16.603%
[08/20/2024 21:57]  System: Anatomy skillgain: 19.926%
[08/20/2024 21:57]  System: ArmsLore skillgain: 19.926%
[08/20/2024 21:57]  System: Focus skillgain: 16.603%
[08/20/2024 21:57]  System: Chivalry skillgain: 13.282%
[08/20/2024 21:57]  a giant rat: -38
[08/20/2024 21:57]  Oliver Ore Smack: I won't hurt you.
[08/20/2024 21:57]  Ailiin: -5
[08/20/2024 21:57]  System: You have contracted a foul disease!
[08/20/2024 21:57]  Ailiin: *looks violently ill*
[08/20/2024 21:57]  System: Macing skillgain: 13.282%
[08/20/2024 21:57]  System: Your skill in Mace Fighting has increased by 0.1.  It is now 72.2.
[08/20/2024 21:57]  System: Tactics skillgain: 16.603%
[08/20/2024 21:57]  System: Anatomy skillgain: 19.926%
[08/20/2024 21:57]  System: ArmsLore skillgain: 19.926%
[08/20/2024 21:57]  System: Focus skillgain: 16.603%
[08/20/2024 21:57]  System: Chivalry skillgain: 13.282%
[08/20/2024 21:57]  System: Your skill in Chivalry has increased by 0.1.  It is now 70.9.
[08/20/2024 21:57]  System: You have gained a little fame.
[08/20/2024 21:57]  System: You have gained a little karma.
[08/20/2024 21:57]  System: -13
[08/20/2024 21:57]  You see: a giant rat corpse
[08/20/2024 21:57]  Ailiin: -4
[08/20/2024 21:57]  Oliver Ore Smack: Don't be afraid.
[08/20/2024 21:57]  Raichelle: Raichelle (Young)
[08/20/2024 21:57]  You see: a mongbat corpse
[08/20/2024 21:57]  You see: a mongbat corpse
[08/20/2024 21:57]  FastandCurious: FastandCurious (Young)
[08/20/2024 21:57]  System: Players cannot commit aggressive actions in that location.
[08/20/2024 21:57]  System: Players cannot commit aggressive actions in that location.
[08/20/2024 21:57]  a giant rat: a giant rat
[08/20/2024 21:57]  UlfrikStabson: UlfrikStabson (Young)
[08/20/2024 21:57]  System: Players cannot commit aggressive actions in that location.
[08/20/2024 21:57]  System: Players cannot commit aggressive actions in that location.
[08/20/2024 21:57]  You see: a mongbat corpse
[08/20/2024 21:57]  a mongbat: a mongbat
[08/20/2024 21:57]  Ailiin: -4
[08/20/2024 21:57]  Zha Q'ar: [Patient Zero, Yew]
[08/20/2024 21:57]  Zha Q'ar: Lord Zha Q'ar
[08/20/2024 21:57]  Bad Box: Bad Box (Young)
[08/20/2024 21:57]  Mattss: Mattss
[08/20/2024 21:57]  Krogu: Krogu (Young)
[08/20/2024 21:57]  Bumblepops: Bumblepops
[08/20/2024 21:57]  You see: a mongbat corpse
[08/20/2024 21:57]  You see: a mongbat corpse
[08/20/2024 21:57]  You see: a mongbat corpse
[08/20/2024 21:57]  You see: a mongbat corpse
[08/20/2024 21:57]  You see: a mongbat corpse
[08/20/2024 21:57]  You see: a mongbat corpse
[08/20/2024 21:57]  You see: a mongbat corpse
[08/20/2024 21:57]  a gravebug: (bonded)
[08/20/2024 21:57]  a gravebug: a gravebug
[08/20/2024 21:57]  Warner the Watch: [Knight, Sir.]
[08/20/2024 21:57]  Warner the Watch: Warner the Watch
[08/20/2024 21:57]  Passaconaway: Passaconaway (Young)
[08/20/2024 21:57]  LeArke: LeArke
[08/20/2024 21:57]  Dopamine: Roll Player
[08/20/2024 21:57]  Dopamine: [FS!]
[08/20/2024 21:57]  Dopamine: Dopamine
[08/20/2024 21:57]  You see: a mongbat corpse
[08/20/2024 21:57]  Remi Locke: Remi Locke
[08/20/2024 21:57]  BalBowa: BalBowa (Young)
[08/20/2024 21:57]  an undead miner: an undead miner (Young)
[08/20/2024 21:57]  Chicco Gatto: Alchemist
[08/20/2024 21:57]  Chicco Gatto: [Normal Progressing, -_-]
[08/20/2024 21:57]  Chicco Gatto: Lord Chicco Gatto
[08/20/2024 21:57]  FrancisZhou: FrancisZhou
[08/20/2024 21:57]  Apex Apox Aprix: Apex Apox Aprix (Young)
[08/20/2024 21:57]  Amarante: Amarante
[08/20/2024 21:57]  Ailiin: -4
[08/20/2024 21:57]  System: You may not loot this corpse.
[08/20/2024 21:57]  System: You may not loot this corpse.
[08/20/2024 21:57]  System: You may not loot this corpse.
[08/20/2024 21:57]  Ailiin: -4
[08/20/2024 21:57]  System: You may not loot this corpse.
[08/20/2024 21:57]  System: You may not loot this corpse.
[08/20/2024 21:57]  System: You may not loot this corpse.
[08/20/2024 21:57]  System: Players cannot commit aggressive actions in that location.
[08/20/2024 21:57]  System: You may not loot this corpse.
[08/20/2024 21:57]  System: Players cannot commit aggressive actions in that location.
[08/20/2024 21:57]  System: Players cannot commit aggressive actions in that location.
[08/20/2024 21:57]  System: Players cannot commit aggressive actions in that location.
[08/20/2024 21:57]  System: You are now under the protection of the town guards.
[08/20/2024 21:57]  Ailiin: -4
[08/20/2024 21:57]  an eagle: an eagle
[08/20/2024 21:57]  a hind: a hind
[08/20/2024 21:57]  a great hart: a great hart
[08/20/2024 21:57]  a pack llama: (tame)
[08/20/2024 21:57]  a pack llama: [0/2000 stones]
[08/20/2024 21:57]  a pack llama: a pack llama
[08/20/2024 21:57]  Afsky: Afsky
[08/20/2024 21:57]  Johnny Tradesman: Johnny Tradesman
[08/20/2024 21:57]  Devil of Avadon: Weaponmaster
[08/20/2024 21:57]  Devil of Avadon: Devil of Avadon
[08/20/2024 21:57]  Zachariah: Zachariah the guard
[08/20/2024 21:57]  Cyllia: Cyllia
[08/20/2024 21:57]  Fathom.: Cambria
[08/20/2024 21:57]  Fathom.: [P]
[08/20/2024 21:57]  Fathom.: Fathom.
[08/20/2024 21:57]  Romul: Romul (Young)
[08/20/2024 21:57]  Newdie: Newdie (Young)
[08/20/2024 21:57]  Sorshka: Sorshka (Young)
[08/20/2024 21:57]  Kflow: [Book Worm, CtS]
[08/20/2024 21:57]  Kflow: Kflow
[08/20/2024 21:57]  Mappen Dalk: [Loyal, NKB]
[08/20/2024 21:57]  Mappen Dalk: Mappen Dalk
[08/20/2024 21:57]  Barry McKochner: [Druid, BEAR]
[08/20/2024 21:57]  Barry McKochner: Barry McKochner
[08/20/2024 21:57]  Dark Dalk: [Loyal, NKB]
[08/20/2024 21:57]  Dark Dalk: Dark Dalk
[08/20/2024 21:57]  a forest ostard: (bonded)
[08/20/2024 21:57]  a forest ostard: a forest ostard
[08/20/2024 21:57]  Kflow: Our spacious guild hall offers a safe place to level your skills and restock!
[08/20/2024 21:57]  a giant frog: (tame)
[08/20/2024 21:57]  a giant frog: a giant frog
[08/20/2024 21:57]  a familiar: (tame)
[08/20/2024 21:57]  a familiar: a familiar
[08/20/2024 21:57]  a giant frog: (tame)
[08/20/2024 21:57]  a giant frog: a giant frog
[08/20/2024 21:57]  Orogastus: Master of Aspects
[08/20/2024 21:57]  Orogastus: [Beard Brother, BB]
[08/20/2024 21:57]  Orogastus: Lord Orogastus
[08/20/2024 21:57]  Ailiin: -4
[08/20/2024 21:57]  Ailiin: -4
[08/20/2024 21:57]  Ailiin: -4
[08/20/2024 21:57]  System: You are no longer diseased.
[08/20/2024 21:57]  Kflow: Everything you need to drop your loot off and get back to farming!
[08/20/2024 21:57]  Thr ain: Thr ain (Young)
[08/20/2024 21:57]  System: Holy symbols remaining: 5/6
[08/20/2024 21:57]  Kflow: You can even access your room from our steward, if need be!
[08/20/2024 21:58]  System: Max holy symbols earned (6/6)
[08/20/2024 21:58]  an eagle: an eagle
[08/20/2024 21:58]  a hind: a hind
[08/20/2024 21:58]  a hind: a hind
[08/20/2024 21:58]  Zachariah: Zachariah the guard
[08/20/2024 21:58]  System: You have left the protection of the town guards.
[08/20/2024 21:58]  You see: a mongbat corpse
[08/20/2024 21:58]  You see: a mongbat corpse
[08/20/2024 21:58]  You see: a mongbat corpse
[08/20/2024 21:58]  You see: a mongbat corpse
[08/20/2024 21:58]  You see: a mongbat corpse
[08/20/2024 21:58]  You see: a mongbat corpse
[08/20/2024 21:58]  You see: a mongbat corpse
[08/20/2024 21:58]  You see: a mongbat corpse
[08/20/2024 21:58]  You see: a mongbat corpse
[08/20/2024 21:58]  You see: a mongbat corpse
[08/20/2024 21:58]  You see: a mongbat corpse
[08/20/2024 21:58]  Raichelle: Raichelle (Young)
[08/20/2024 21:58]  a mongbat: a mongbat
[08/20/2024 21:58]  Thr ain: Thr ain (Young)
[08/20/2024 21:58]  Zha Q'ar: [Patient Zero, Yew]
[08/20/2024 21:58]  Zha Q'ar: Lord Zha Q'ar
[08/20/2024 21:58]  a wounded harpy: a wounded harpy
[08/20/2024 21:58]  Bad Box: Bad Box (Young)
[08/20/2024 21:58]  Mattss: Mattss
[08/20/2024 21:58]  MyFactionChar: MyFactionChar (Young)
[08/20/2024 21:58]  Krogu: Krogu (Young)
[08/20/2024 21:58]  Bumblepops: Bumblepops
[08/20/2024 21:58]  Afsky: Afsky
[08/20/2024 21:58]  Remi Locke: Remi Locke
[08/20/2024 21:58]  a gravebug: (bonded)
[08/20/2024 21:58]  a gravebug: a gravebug
[08/20/2024 21:58]  Warner the Watch: [Knight, Sir.]
[08/20/2024 21:58]  Warner the Watch: Warner the Watch
[08/20/2024 21:58]  Passaconaway: Passaconaway (Young)
[08/20/2024 21:58]  FrancisZhou: FrancisZhou
[08/20/2024 21:58]  LeArke: LeArke
[08/20/2024 21:58]  Apex Apox Aprix: Apex Apox Aprix (Young)
[08/20/2024 21:58]  Amarante: Amarante
[08/20/2024 21:58]  BalBowa: BalBowa (Young)
[08/20/2024 21:58]  an undead miner: an undead miner (Young)
[08/20/2024 21:58]  Chicco Gatto: Alchemist
[08/20/2024 21:58]  Chicco Gatto: [Normal Progressing, -_-]
[08/20/2024 21:58]  Chicco Gatto: Lord Chicco Gatto
[08/20/2024 21:58]  Dopamine: Roll Player
[08/20/2024 21:58]  Dopamine: [FS!]
[08/20/2024 21:58]  Dopamine: Dopamine
[08/20/2024 21:58]  System: Players cannot commit aggressive actions in that location.
[08/20/2024 21:58]  System: Players cannot commit aggressive actions in that location.
[08/20/2024 21:58]  System: Players cannot commit aggressive actions in that location.
[08/20/2024 21:58]  Afsky: An Lor Xen
[08/20/2024 21:58]  System: Players cannot commit aggressive actions in that location.
[08/20/2024 21:58]  System: Players cannot commit aggressive actions in that location.
[08/20/2024 21:58]  a zombie: a zombie
[08/20/2024 21:58]  System: Players cannot commit aggressive actions in that location.
[08/20/2024 21:58]  You see: a mongbat corpse
[08/20/2024 21:58]  Krogu: Por Ort Grav
[08/20/2024 21:58]  Afsky: An Lor Xen
[08/20/2024 21:58]  Warner the Watch: *area taunt*
[08/20/2024 21:58]  System: Players cannot commit aggressive actions in that location.
[08/20/2024 21:58]  UlfrikStabson: UlfrikStabson (Young)
[08/20/2024 21:58]  System: Players cannot commit aggressive actions in that location.
[08/20/2024 21:58]  System: You are now under the protection of the town guards.
[08/20/2024 21:58]  an eagle: an eagle
[08/20/2024 21:58]  a hind: a hind
[08/20/2024 21:58]  a great hart: a great hart
[08/20/2024 21:58]  a hind: a hind
[08/20/2024 21:58]  a pack llama: (tame)
[08/20/2024 21:58]  a pack llama: [0/2000 stones]
[08/20/2024 21:58]  a pack llama: a pack llama
[08/20/2024 21:58]  Johnny Tradesman: Johnny Tradesman
[08/20/2024 21:58]  Devil of Avadon: Weaponmaster
[08/20/2024 21:58]  Devil of Avadon: Devil of Avadon
[08/20/2024 21:58]  Zachariah: Zachariah the guard
[08/20/2024 21:58]  Cyllia: Cyllia
[08/20/2024 21:58]  Fathom.: Cambria
[08/20/2024 21:58]  Fathom.: [P]
[08/20/2024 21:58]  Fathom.: Fathom.
[08/20/2024 21:58]  Romul: Romul (Young)
[08/20/2024 21:58]  Sorshka: Sorshka (Young)
[08/20/2024 21:58]  Kflow: [Book Worm, CtS]
[08/20/2024 21:58]  Kflow: Kflow
[08/20/2024 21:58]  Mappen Dalk: [Loyal, NKB]
[08/20/2024 21:58]  Mappen Dalk: Mappen Dalk
[08/20/2024 21:58]  Barry McKochner: [Druid, BEAR]
[08/20/2024 21:58]  Barry McKochner: Barry McKochner
[08/20/2024 21:58]  Dark Dalk: [Loyal, NKB]
[08/20/2024 21:58]  Dark Dalk: Dark Dalk
[08/20/2024 21:58]  a forest ostard: (bonded)
[08/20/2024 21:58]  a forest ostard: a forest ostard
[08/20/2024 21:58]  Newdie: Newdie (Young)
[08/20/2024 21:58]  System: You have left the protection of the town guards.
[08/20/2024 21:58]  You see: a mongbat corpse
[08/20/2024 21:58]  You see: a mongbat corpse
[08/20/2024 21:58]  You see: a mongbat corpse
[08/20/2024 21:58]  You see: a mongbat corpse
[08/20/2024 21:58]  You see: a mongbat corpse
[08/20/2024 21:58]  You see: a mongbat corpse
[08/20/2024 21:58]  You see: a mongbat corpse
[08/20/2024 21:58]  You see: a mongbat corpse
[08/20/2024 21:58]  You see: a mongbat corpse
[08/20/2024 21:58]  You see: a mongbat corpse
[08/20/2024 21:58]  You see: a mongbat corpse
[08/20/2024 21:58]  You see: a mongbat corpse
[08/20/2024 21:58]  Raichelle: Raichelle (Young)
[08/20/2024 21:58]  UlfrikStabson: UlfrikStabson (Young)
[08/20/2024 21:58]  Zha Q'ar: [Patient Zero, Yew]
[08/20/2024 21:58]  Zha Q'ar: Lord Zha Q'ar
[08/20/2024 21:58]  a wounded harpy: a wounded harpy
[08/20/2024 21:58]  Bad Box: Bad Box (Young)
[08/20/2024 21:58]  Mattss: Mattss
[08/20/2024 21:58]  Krogu: Krogu (Young)
[08/20/2024 21:58]  MyFactionChar: MyFactionChar (Young)
[08/20/2024 21:58]  Bumblepops: Bumblepops
[08/20/2024 21:58]  Afsky: Afsky
[08/20/2024 21:58]  Remi Locke: Remi Locke
[08/20/2024 21:58]  a gravebug: (bonded)
[08/20/2024 21:58]  a gravebug: a gravebug
[08/20/2024 21:58]  Warner the Watch: [Knight, Sir.]
[08/20/2024 21:58]  Warner the Watch: Warner the Watch
[08/20/2024 21:58]  Passaconaway: Passaconaway (Young)
[08/20/2024 21:58]  FrancisZhou: FrancisZhou
[08/20/2024 21:58]  LeArke: LeArke
[08/20/2024 21:58]  Apex Apox Aprix: Apex Apox Aprix (Young)
[08/20/2024 21:58]  Amarante: Amarante
[08/20/2024 21:58]  BalBowa: BalBowa (Young)
[08/20/2024 21:58]  an undead miner: an undead miner (Young)
[08/20/2024 21:58]  Chicco Gatto: Alchemist
[08/20/2024 21:58]  Chicco Gatto: [Normal Progressing, -_-]
[08/20/2024 21:58]  Chicco Gatto: Lord Chicco Gatto
[08/20/2024 21:58]  Dopamine: Roll Player
[08/20/2024 21:58]  Dopamine: [FS!]
[08/20/2024 21:58]  Dopamine: Dopamine
[08/20/2024 21:58]  System: Players cannot commit aggressive actions in that location.
[08/20/2024 21:58]  System: Players cannot commit aggressive actions in that location.
[08/20/2024 21:58]  System: Players cannot commit aggressive actions in that location.
[08/20/2024 21:58]  System: You may not loot this corpse.
[08/20/2024 21:58]  System: You may not loot this corpse.
[08/20/2024 21:58]  System: You may not loot this corpse.
[08/20/2024 21:58]  System: You may not loot this corpse.
[08/20/2024 21:58]  System: You may not loot this corpse.
[08/20/2024 21:58]  System: You may not loot this corpse.
[08/20/2024 21:58]  System: Players cannot commit aggressive actions in that location.
[08/20/2024 21:58]  System: Players cannot commit aggressive actions in that location.
[08/20/2024 21:58]  System: You may not loot this corpse.
[08/20/2024 21:58]  System: You may not loot this corpse.
[08/20/2024 21:58]  System: You may not loot this corpse.
[08/20/2024 21:58]  System: You may not loot this corpse.
[08/20/2024 21:58]  System: You may not loot this corpse.
[08/20/2024 21:58]  System: You may not loot this corpse.
[08/20/2024 21:58]  System: Players cannot commit aggressive actions in that location.
[08/20/2024 21:58]  System: Players cannot commit aggressive actions in that location.
[08/20/2024 21:58]  System: You may not loot this corpse.
[08/20/2024 21:58]  System: You may not loot this corpse.
[08/20/2024 21:58]  System: You may not loot this corpse.
[08/20/2024 21:58]  System: You may not loot this corpse.
[08/20/2024 21:58]  System: You may not loot this corpse.
[08/20/2024 21:58]  System: You may not loot this corpse.
[08/20/2024 21:58]  System: Players cannot commit aggressive actions in that location.
[08/20/2024 21:58]  System: Players cannot commit aggressive actions in that location.
[08/20/2024 21:58]  System: You may not loot this corpse.
[08/20/2024 21:58]  System: You may not loot this corpse.
[08/20/2024 21:58]  System: You may not loot this corpse.
[08/20/2024 21:58]  System: You may not loot this corpse.
[08/20/2024 21:58]  System: You may not loot this corpse.
[08/20/2024 21:58]  System: You may not loot this corpse.
[08/20/2024 21:58]  System: Players cannot commit aggressive actions in that location.
[08/20/2024 21:58]  System: Players cannot commit aggressive actions in that location.
[08/20/2024 21:58]  System: You may not loot this corpse.
[08/20/2024 21:58]  System: You may not loot this corpse.
[08/20/2024 21:58]  System: You may not loot this corpse.
[08/20/2024 21:58]  System: You may not loot this corpse.
[08/20/2024 21:58]  System: You may not loot this corpse.
[08/20/2024 21:58]  System: You may not loot this corpse.
[08/20/2024 21:58]  Krogu: Por Ort Grav
[08/20/2024 21:58]  Afsky: An Lor Xen
[08/20/2024 21:58]  Ashley Stabah: Ashley Stabah
[08/20/2024 21:58]  Zha Q'ar: An Lor Xen
[08/20/2024 21:58]  Afsky: An Lor Xen
[08/20/2024 21:58]  Warner the Watch: Be thou blessed by the Virtues
[08/20/2024 21:58]  Chimmy: Transmuter
[08/20/2024 21:58]  Chimmy: Chimmy
[08/20/2024 21:58]  Krogu: Por Ort Grav
[08/20/2024 21:58]  Zha Q'ar: An Lor Xen
[08/20/2024 21:58]  Afsky: An Lor Xen
[08/20/2024 21:58]  Afsky: Afsky
[08/20/2024 21:58]  You see: a mongbat corpse
[08/20/2024 21:58]  Zha Q'ar: An Lor Xen
[08/20/2024 21:58]  Afsky: An Lor Xen
[08/20/2024 21:58]  D Bag: D Bag (Young)
[08/20/2024 21:58]  Krogu: Por Ort Grav
[08/20/2024 21:58]  Zha Q'ar: [Patient Zero, Yew]
[08/20/2024 21:58]  Zha Q'ar: Lord Zha Q'ar
[08/20/2024 21:58]  Afsky: An Lor Xen
[08/20/2024 21:58]  Krogu: Por Ort Grav
[08/20/2024 21:58]  Warner the Watch: *area taunt*
[08/20/2024 21:58]  Afsky: An Lor Xen
[08/20/2024 21:58]  Zha Q'ar: An Lor Xen
[08/20/2024 21:58]  Afsky: An Lor Xen
[08/20/2024 21:58]  Krogu: Por Ort Grav
[08/20/2024 21:58]  Zha Q'ar: An Lor Xen
[08/20/2024 21:58]  Zha Q'ar: [Patient Zero, Yew]
[08/20/2024 21:58]  Zha Q'ar: Lord Zha Q'ar
[08/20/2024 21:58]  Afsky: An Lor Xen
[08/20/2024 21:58]  Krogu: Por Ort Grav
[08/20/2024 21:58]  Zha Q'ar: [Patient Zero, Yew]
[08/20/2024 21:58]  Zha Q'ar: Lord Zha Q'ar
[08/20/2024 21:58]  Raichelle: Raichelle (Young)
[08/20/2024 21:58]  FastandCurious: FastandCurious (Young)
[08/20/2024 21:58]  Afsky: An Lor Xen
[08/20/2024 21:58]  Krogu: In Vas Mani
[08/20/2024 21:58]  a giant rat: [Lesser Poison]
[08/20/2024 21:58]  a giant rat: a giant rat
[08/20/2024 21:58]  a giant rat: a giant rat
[08/20/2024 21:58]  a mongbat: a mongbat
[08/20/2024 21:58]  Zha Q'ar: An Lor Xen
[08/20/2024 21:58]  FastandCurious: *looks violently ill*
[08/20/2024 21:58]  Afsky: An Lor Xen
[08/20/2024 21:58]  Krogu: Por Ort Grav
[08/20/2024 21:58]  a giant bat: a giant bat
[08/20/2024 21:58]  You see: a giant rat corpse
[08/20/2024 21:58]  Warner the Watch: *area taunt*
[08/20/2024 21:58]  Afsky: An Lor Xen
[08/20/2024 21:58]  You see: the remains of FastandCurious
[08/20/2024 21:58]  Ashley Stabah: Ashley Stabah
[08/20/2024 21:58]  Zha Q'ar: [Patient Zero, Yew]
[08/20/2024 21:58]  Zha Q'ar: Lord Zha Q'ar
[08/20/2024 21:58]  Afsky: An Lor Xen
[08/20/2024 21:58]  Thr ain: Thr ain (Young)
[08/20/2024 21:58]  a mongbat: a mongbat
[08/20/2024 21:58]  a mongbat: a mongbat
[08/20/2024 21:58]  Afsky: An Lor Xen
[08/20/2024 21:58]  Afsky: An Lor Xen
[08/20/2024 21:58]  Zha Q'ar: An Lor Xen
[08/20/2024 21:59]  Afsky: An Lor Xen
[08/20/2024 21:59]  Zha Q'ar: An Lor Xen
[08/20/2024 21:59]  You see: a mongbat corpse
[08/20/2024 21:59]  You see: a mongbat corpse
[08/20/2024 21:59]  Afsky: An Lor Xen
[08/20/2024 21:59]  Afsky: Afsky
[08/20/2024 21:59]  Zha Q'ar: An Lor Xen
[08/20/2024 21:59]  Warner the Watch: *area taunt*
[08/20/2024 21:59]  FastandCurious: FastandCurious (Young)
[08/20/2024 21:59]  Raichelle: *looks violently ill*
[08/20/2024 21:59]  Afsky: An Lor Xen
[08/20/2024 21:59]  Zha Q'ar: An Lor Xen
[08/20/2024 21:59]  D Bag: D Bag (Young)
[08/20/2024 21:59]  Afsky: An Lor Xen
[08/20/2024 21:59]  UlfrikStabson: UlfrikStabson (Young)
[08/20/2024 21:59]  Zha Q'ar: An Lor Xen
[08/20/2024 21:59]  Zha Q'ar: [Patient Zero, Yew]
[08/20/2024 21:59]  Zha Q'ar: Lord Zha Q'ar
[08/20/2024 21:59]  Afsky: An Lor Xen
[08/20/2024 21:59]  System: Your campfire is now secure.
[08/20/2024 21:59]  FastandCurious: Por Ort Grav
[08/20/2024 21:59]  You see: a giant rat corpse
[08/20/2024 21:59]  Zha Q'ar: An Lor Xen
[08/20/2024 21:59]  System: Your campfire is now secure.
[08/20/2024 21:59]  System: Your campfire is now secure.
[08/20/2024 21:59]  Afsky: An Lor Xen
[08/20/2024 21:59]  Zha Q'ar: An Lor Xen
[08/20/2024 21:59]  Afsky: An Lor Xen
[08/20/2024 21:59]  Krogu: Por Ort Grav
[08/20/2024 21:59]  Incubo: Incubo
[08/20/2024 21:59]  Warner the Watch: *area taunt*
[08/20/2024 21:59]  Chimmy: Transmuter
[08/20/2024 21:59]  Chimmy: Chimmy
[08/20/2024 21:59]  Afsky: An Lor Xen
[08/20/2024 21:59]  Zha Q'ar: [Patient Zero, Yew]
[08/20/2024 21:59]  Zha Q'ar: Lord Zha Q'ar
[08/20/2024 21:59]  Krogu: Por Ort Grav
[08/20/2024 21:59]  FastandCurious: In Nox
[08/20/2024 21:59]  Afsky: An Lor Xen
[08/20/2024 21:59]  D Bag: D Bag (Young)
[08/20/2024 21:59]  Krogu: Por Ort Grav
[08/20/2024 21:59]  Afsky: An Lor Xen
[08/20/2024 21:59]  Zha Q'ar: An Lor Xen
[08/20/2024 21:59]  Afsky: An Lor Xen
[08/20/2024 21:59]  Krogu: Por Ort Grav
[08/20/2024 21:59]  Zha Q'ar: An Lor Xen
[08/20/2024 21:59]  Afsky: An Lor Xen
[08/20/2024 21:59]  Krogu: Por Ort Grav
[08/20/2024 21:59]  Zha Q'ar: An Lor Xen
[08/20/2024 21:59]  Afsky: An Lor Xen
[08/20/2024 21:59]  Warner the Watch: *area taunt*
[08/20/2024 21:59]  Zha Q'ar: An Lor Xen
[08/20/2024 21:59]  Zha Q'ar: [Patient Zero, Yew]
[08/20/2024 21:59]  Zha Q'ar: Lord Zha Q'ar
[08/20/2024 21:59]  Krogu: Por Ort Grav
[08/20/2024 21:59]  Afsky: An Lor Xen
[08/20/2024 21:59]  Zha Q'ar: An Lor Xen
[08/20/2024 21:59]  Krogu: In Vas Mani
[08/20/2024 21:59]  Afsky: An Lor Xen
[08/20/2024 21:59]  a mongbat: a mongbat
[08/20/2024 21:59]  Zha Q'ar: An Lor Xen
[08/20/2024 21:59]  Krogu: In Vas Mani
[08/20/2024 21:59]  Afsky: An Lor Xen
[08/20/2024 21:59]  Zha Q'ar: An Lor Xen
[08/20/2024 21:59]  Zha Q'ar: [Patient Zero, Yew]
[08/20/2024 21:59]  Zha Q'ar: Lord Zha Q'ar
[08/20/2024 21:59]  Krogu: Por Ort Grav
[08/20/2024 21:59]  Afsky: An Lor Xen
[08/20/2024 21:59]  You see: a mongbat corpse
[08/20/2024 21:59]  Zha Q'ar: An Lor Xen
[08/20/2024 21:59]  Zha Q'ar: [Patient Zero, Yew]
[08/20/2024 21:59]  Zha Q'ar: Lord Zha Q'ar
[08/20/2024 21:59]  Krogu: Por Ort Grav
[08/20/2024 21:59]  Afsky: An Lor Xen
[08/20/2024 21:59]  Zha Q'ar: [Patient Zero, Yew]
[08/20/2024 21:59]  Zha Q'ar: Lord Zha Q'ar
[08/20/2024 21:59]  Thr ain: Thr ain (Young)
[08/20/2024 21:59]  Warner the Watch: *area taunt*
[08/20/2024 22:00]  Krogu: Por Ort Grav
[08/20/2024 22:00]  Afsky: An Lor Xen
[08/20/2024 22:00]  Afsky: An Lor Xen
[08/20/2024 22:00]  a giant bat: a giant bat
[08/20/2024 22:00]  Krogu: Por Ort Grav
[08/20/2024 22:00]  Afsky: An Lor Xen
[08/20/2024 22:00]  Afsky: Afsky
[08/20/2024 22:00]  Krogu: In Vas Mani
[08/20/2024 22:00]  Afsky: An Lor Xen
[08/20/2024 22:00]  Zha Q'ar: An Lor Xen
[08/20/2024 22:00]  Krogu: Por Ort Grav
[08/20/2024 22:00]  You see: a mongbat corpse
[08/20/2024 22:00]  Afsky: An Lor Xen
[08/20/2024 22:00]  Zha Q'ar: An Lor Xen
[08/20/2024 22:00]  Afsky: Afsky
[08/20/2024 22:00]  Zha Q'ar: [Patient Zero, Yew]
[08/20/2024 22:00]  Zha Q'ar: Lord Zha Q'ar
[08/20/2024 22:00]  Krogu: Por Ort Grav
[08/20/2024 22:00]  Warner the Watch: *area taunt*
[08/20/2024 22:00]  You see: a mongbat corpse
[08/20/2024 22:00]  a sand crab: (summoned)
[08/20/2024 22:00]  a sand crab: a sand crab
[08/20/2024 22:00]  a grizzly bear: (summoned)
[08/20/2024 22:00]  a grizzly bear: a grizzly bear
[08/20/2024 22:00]  a brown bear: (summoned)
[08/20/2024 22:00]  a brown bear: a brown bear
[08/20/2024 22:00]  Romul: Romul (Young)
[08/20/2024 22:00]  UlfrikStabson: UlfrikStabson (Young)
[08/20/2024 22:00]  Afsky: An Lor Xen
[08/20/2024 22:00]  D Bag: D Bag (Young)
[08/20/2024 22:00]  Zha Q'ar: An Lor Xen
[08/20/2024 22:00]  Afsky: An Lor Xen
[08/20/2024 22:00]  Zha Q'ar: [Patient Zero, Yew]
[08/20/2024 22:00]  Zha Q'ar: Lord Zha Q'ar
[08/20/2024 22:00]  Afsky: An Lor Xen
[08/20/2024 22:00]  Afsky: An Lor Xen
[08/20/2024 22:00]  Sorshka: Sorshka (Young)
[08/20/2024 22:00]  System: Your campfire is now secure.
[08/20/2024 22:00]  Warner the Watch: *area taunt*
[08/20/2024 22:00]  a mongbat: a mongbat
[08/20/2024 22:00]  Dopamine: Kal Vas Xen Ylem
[08/20/2024 22:00]  Afsky: An Lor Xen
[08/20/2024 22:00]  Zha Q'ar: An Lor Xen
[08/20/2024 22:00]  an earth elemental: (summoned)
[08/20/2024 22:00]  an earth elemental: an earth elemental
[08/20/2024 22:00]  Zha Q'ar: [Patient Zero, Yew]
[08/20/2024 22:00]  Zha Q'ar: Lord Zha Q'ar
[08/20/2024 22:00]  Dopamine: Kal Vas Xen Ylem
[08/20/2024 22:00]  Afsky: An Lor Xen
[08/20/2024 22:00]  Chimmy: Transmuter
[08/20/2024 22:00]  Chimmy: Chimmy
[08/20/2024 22:00]  an earth elemental: (summoned)
[08/20/2024 22:00]  an earth elemental: an earth elemental
[08/20/2024 22:00]  Nancy.J.M: Nancy.J.M (Young)
[08/20/2024 22:00]  Afsky: An Lor Xen
[08/20/2024 22:00]  Thr ain: Thr ain (Young)
[08/20/2024 22:00]  Zha Q'ar: An Lor Xen
[08/20/2024 22:00]  System: [CCC] The Corpse Creek Contest has begun! Type [BattleHotbar to view the Battle Hotbar for this event.
[08/20/2024 22:00]  Warner the Watch: Be thou blessed by the Virtues
[08/20/2024 22:00]  Krogu: Por Ort Grav
[08/20/2024 22:00]  Afsky: An Lor Xen
[08/20/2024 22:00]  Ashley Stabah: Ashley Stabah
[08/20/2024 22:00]  Afsky: An Lor Xen
[08/20/2024 22:00]  Afsky: Afsky
[08/20/2024 22:00]  Zha Q'ar: [Patient Zero, Yew]
[08/20/2024 22:00]  Zha Q'ar: Lord Zha Q'ar
[08/20/2024 22:00]  Krogu: In Vas Mani
[08/20/2024 22:00]  Afsky: An Lor Xen
[08/20/2024 22:00]  Afsky: Afsky
[08/20/2024 22:00]  Warner the Watch: *area taunt*
[08/20/2024 22:00]  Afsky: An Lor Xen
[08/20/2024 22:00]  D Bag: D Bag (Young)
[08/20/2024 22:01]  Zha Q'ar: An Lor Xen
[08/20/2024 22:01]  Afsky: An Lor Xen
[08/20/2024 22:01]  Chimmy: Transmuter
[08/20/2024 22:01]  Chimmy: Chimmy
[08/20/2024 22:01]  Zha Q'ar: An Lor Xen
[08/20/2024 22:01]  Afsky: Afsky
[08/20/2024 22:01]  Krogu: Por Ort Grav
[08/20/2024 22:01]  Zha Q'ar: [Patient Zero, Yew]
[08/20/2024 22:01]  Zha Q'ar: Lord Zha Q'ar
[08/20/2024 22:01]  UlfrikStabson: UlfrikStabson (Young)
[08/20/2024 22:01]  Afsky: An Lor Xen
[08/20/2024 22:01]  FastandCurious: FastandCurious (Young)
[08/20/2024 22:01]  Krogu: Por Ort Grav
[08/20/2024 22:01]  a headless: a headless
[08/20/2024 22:01]  Afsky: An Lor Xen
[08/20/2024 22:01]  a giant rat: a giant rat
[08/20/2024 22:01]  Warner the Watch: *area taunt*
[08/20/2024 22:01]  Afsky: An Lor Xen
[08/20/2024 22:01]  Krogu: Por Ort Grav
[08/20/2024 22:01]  Zha Q'ar: An Lor Xen
[08/20/2024 22:01]  FastandCurious: FastandCurious (Young)
[08/20/2024 22:01]  Zha Q'ar: [Patient Zero, Yew]
[08/20/2024 22:01]  Zha Q'ar: Lord Zha Q'ar
[08/20/2024 22:01]  Afsky: An Lor Xen
[08/20/2024 22:01]  D Bag: D Bag (Young)
[08/20/2024 22:01]  Krogu: Por Ort Grav
[08/20/2024 22:01]  FastandCurious: Por Ort Grav
[08/20/2024 22:01]  Afsky: An Lor Xen
[08/20/2024 22:01]  You see: a giant rat corpse
[08/20/2024 22:01]  Krogu: Por Ort Grav
[08/20/2024 22:01]  Afsky: An Lor Xen
[08/20/2024 22:01]  UlfrikStabson: UlfrikStabson (Young)
[08/20/2024 22:01]  Krogu: Por Ort Grav
[08/20/2024 22:01]  Afsky: An Lor Xen
[08/20/2024 22:01]  Zha Q'ar: An Lor Xen
[08/20/2024 22:01]  Warner the Watch: *area taunt*
[08/20/2024 22:01]  Krogu: In Vas Mani
[08/20/2024 22:01]  Afsky: An Lor Xen
[08/20/2024 22:01]  Zha Q'ar: An Lor Xen
[08/20/2024 22:01]  Zha Q'ar: [Patient Zero, Yew]
[08/20/2024 22:01]  Zha Q'ar: Lord Zha Q'ar
[08/20/2024 22:01]  Afsky: An Lor Xen
[08/20/2024 22:01]  Chimmy: Transmuter
[08/20/2024 22:01]  Chimmy: Chimmy
[08/20/2024 22:01]  Afsky: An Lor Xen
[08/20/2024 22:01]  Afsky: Afsky
[08/20/2024 22:01]  a mongbat: a mongbat
[08/20/2024 22:01]  Zha Q'ar: An Lor Xen
[08/20/2024 22:01]  Afsky: An Lor Xen
[08/20/2024 22:01]  System: Zacharias Wagner has completed the achievement: Savant (Advanced).
[08/20/2024 22:01]  Afsky: An Lor Xen
[08/20/2024 22:01]  Zha Q'ar: [Patient Zero, Yew]
[08/20/2024 22:01]  Zha Q'ar: Lord Zha Q'ar
[08/20/2024 22:01]  Afsky: An Lor Xen
[08/20/2024 22:01]  Warner the Watch: *area taunt*
[08/20/2024 22:01]  Zha Q'ar: An Lor Xen
[08/20/2024 22:01]  You see: a mongbat corpse
[08/20/2024 22:01]  System: Players cannot commit aggressive actions in that location.
[08/20/2024 22:01]  System: The world will save in 15 seconds.
[08/20/2024 22:01]  Afsky: An Lor Xen
[08/20/2024 22:01]  Afsky: An Lor Xen
[08/20/2024 22:01]  Ashley Stabah: Ashley Stabah
[08/20/2024 22:01]  Zha Q'ar: [Patient Zero, Yew]
[08/20/2024 22:01]  Zha Q'ar: Lord Zha Q'ar
[08/20/2024 22:01]  UlfrikStabson: UlfrikStabson (Young)
[08/20/2024 22:01]  Afsky: An Lor Xen
[08/20/2024 22:01]  Afsky: Afsky
[08/20/2024 22:01]  System: Your campfire is now secure.
[08/20/2024 22:02]  a giant bat: a giant bat
[08/20/2024 22:02]  Afsky: An Lor Xen
[08/20/2024 22:02]  Thr ain: Thr ain (Young)
[08/20/2024 22:02]  Afsky: An Lor Xen
[08/20/2024 22:02]  Zha Q'ar: An Lor Xen
[08/20/2024 22:02]  System: The world is saving, please wait.
[08/20/2024 22:02]  System: World save complete. The entire process took 2.6 seconds.
[08/20/2024 22:02]  Warner the Watch: *area taunt*
[08/20/2024 22:02]  Afsky: Afsky
[08/20/2024 22:02]  Zha Q'ar: [Patient Zero, Yew]
[08/20/2024 22:02]  Zha Q'ar: Lord Zha Q'ar
[08/20/2024 22:02]  Afsky: An Lor Xen
[08/20/2024 22:02]  Carver Al'whani: [Veteran, rekt]
[08/20/2024 22:02]  Carver Al'whani: Carver Al'whani
[08/20/2024 22:02]  Zha Q'ar: An Lor Xen
[08/20/2024 22:02]  Afsky: An Lor Xen
[08/20/2024 22:02]  Krogu: Por Ort Grav
[08/20/2024 22:02]  Warner the Watch: *area taunt*
[08/20/2024 22:02]  Zha Q'ar: [Patient Zero, Yew]
[08/20/2024 22:02]  Zha Q'ar: Lord Zha Q'ar
[08/20/2024 22:02]  Afsky: An Lor Xen
[08/20/2024 22:02]  D Bag: D Bag (Young)
[08/20/2024 22:02]  Krogu: Por Ort Grav
[08/20/2024 22:02]  Afsky: Afsky
[08/20/2024 22:02]  a mongbat: a mongbat
[08/20/2024 22:02]  Krogu: Por Ort Grav
[08/20/2024 22:02]  Krogu: Por Ort Grav
[08/20/2024 22:02]  Zha Q'ar: An Lor Xen
[08/20/2024 22:02]  Afsky: An Lor Xen
[08/20/2024 22:02]  Zha Q'ar: [Patient Zero, Yew]
[08/20/2024 22:02]  Zha Q'ar: Lord Zha Q'ar
[08/20/2024 22:02]  Krogu: Por Ort Grav
[08/20/2024 22:02]  Afsky: An Lor Xen
[08/20/2024 22:02]  a ghoul: (summoned)
[08/20/2024 22:02]  a ghoul: a ghoul
[08/20/2024 22:02]  a skeleton: (summoned)
[08/20/2024 22:02]  a skeleton: a skeleton
[08/20/2024 22:02]  a skeleton: (summoned)
[08/20/2024 22:02]  a skeleton: a skeleton
[08/20/2024 22:02]  Urzula: [The Tavern], [tT]
[08/20/2024 22:02]  Urzula: Urzula
[08/20/2024 22:02]  Afsky: Afsky
[08/20/2024 22:02]  Krogu: In Vas Mani
[08/20/2024 22:02]  Warner the Watch: *area taunt*
[08/20/2024 22:02]  You see: a mongbat corpse
[08/20/2024 22:02]  System: Players cannot commit aggressive actions in that location.
[08/20/2024 22:02]  Volkes: Volkes
[08/20/2024 22:02]  a daemon: (summoned)
[08/20/2024 22:02]  a daemon: a daemon
[08/20/2024 22:02]  Zha Q'ar: An Lor Xen
[08/20/2024 22:02]  D Bag: D Bag (Young)
[08/20/2024 22:02]  Zha Q'ar: [Patient Zero, Yew]
[08/20/2024 22:02]  Zha Q'ar: Lord Zha Q'ar
[08/20/2024 22:02]  Afsky: An Lor Xen
[08/20/2024 22:02]  You see: a mongbat corpse
[08/20/2024 22:02]  Afsky: Afsky
[08/20/2024 22:02]  Zha Q'ar: An Lor Xen
[08/20/2024 22:02]  System: Face (-_-) guild has reached prestige level 3725.
[08/20/2024 22:02]  Zha Q'ar: An Lor Xen
[08/20/2024 22:03]  Zha Q'ar: [Patient Zero, Yew]
[08/20/2024 22:03]  Zha Q'ar: Lord Zha Q'ar
[08/20/2024 22:03]  Warner the Watch: *area taunt*
[08/20/2024 22:03]  Ashley Stabah: Ashley Stabah
[08/20/2024 22:03]  Afsky: An Lor Xen
[08/20/2024 22:03]  Afsky: Afsky
[08/20/2024 22:03]  Zha Q'ar: An Lor Xen
[08/20/2024 22:03]  Zha Q'ar: [Patient Zero, Yew]
[08/20/2024 22:03]  Zha Q'ar: Lord Zha Q'ar
[08/20/2024 22:03]  Warner the Watch: *area taunt*
[08/20/2024 22:03]  Afsky: An Lor Xen
[08/20/2024 22:03]  Warner the Watch: Live by the Oath: Uphold the Principles, Maintain the Virtues and Observe the Code of Chivalry
[08/20/2024 22:03]  D Bag: D Bag (Young)
[08/20/2024 22:03]  UlfrikStabson: UlfrikStabson (Young)
[08/20/2024 22:03]  Afsky: Afsky
[08/20/2024 22:03]  a giant bat: a giant bat
[08/20/2024 22:03]  Zha Q'ar: An Lor Xen
[08/20/2024 22:03]  Zha Q'ar: [Patient Zero, Yew]
[08/20/2024 22:03]  Zha Q'ar: Lord Zha Q'ar
[08/20/2024 22:03]  Afsky: An Lor Xen
[08/20/2024 22:03]  Zha Q'ar: An Lor Xen
[08/20/2024 22:03]  Ashley Stabah: Ashley Stabah
[08/20/2024 22:03]  Afsky: An Lor Xen
[08/20/2024 22:03]  Zha Q'ar: [Patient Zero, Yew]
[08/20/2024 22:03]  Zha Q'ar: Lord Zha Q'ar
[08/20/2024 22:03]  Warner the Watch: *area taunt*
[08/20/2024 22:03]  Afsky: An Lor Xen
[08/20/2024 22:03]  Afsky: An Lor Xen
[08/20/2024 22:03]  Krogu: Por Ort Grav
[08/20/2024 22:03]  Zha Q'ar: An Lor Xen
[08/20/2024 22:03]  Afsky: An Lor Xen
[08/20/2024 22:03]  Zha Q'ar: [Patient Zero, Yew]
[08/20/2024 22:03]  Zha Q'ar: Lord Zha Q'ar
[08/20/2024 22:03]  Krogu: Por Ort Grav
[08/20/2024 22:03]  Afsky: Afsky
[08/20/2024 22:03]  a mongbat: a mongbat
[08/20/2024 22:03]  You see: a giant rat corpse
[08/20/2024 22:03]  Chimmy: Transmuter
[08/20/2024 22:03]  Chimmy: Chimmy
[08/20/2024 22:03]  Krogu: Por Ort Grav
[08/20/2024 22:03]  Afsky: An Lor Xen
[08/20/2024 22:03]  Zha Q'ar: An Lor Xen
[08/20/2024 22:03]  Warner the Watch: *area taunt*
[08/20/2024 22:03]  Krogu: Por Ort Grav
[08/20/2024 22:03]  Afsky: An Lor Xen
[08/20/2024 22:03]  Zha Q'ar: An Lor Xen
[08/20/2024 22:03]  Zha Q'ar: [Patient Zero, Yew]
[08/20/2024 22:03]  Zha Q'ar: Lord Zha Q'ar
[08/20/2024 22:03]  Afsky: Afsky
[08/20/2024 22:03]  Incubo: Incubo
[08/20/2024 22:03]  Zha Q'ar: [Patient Zero, Yew]
[08/20/2024 22:03]  Zha Q'ar: Lord Zha Q'ar
[08/20/2024 22:03]  Krogu: In Vas Mani
[08/20/2024 22:04]  You see: a mongbat corpse
[08/20/2024 22:04]  System: Players cannot commit aggressive actions in that location.
[08/20/2024 22:04]  Krogu: Por Ort Grav
[08/20/2024 22:04]  Incubo: *resists poison*
[08/20/2024 22:04]  You see: a mongbat corpse
[08/20/2024 22:04]  Thr ain: Thr ain (Young)
[08/20/2024 22:04]  Bheldar Mokkar: Adventurer Initiate
[08/20/2024 22:04]  Bheldar Mokkar: [Loyal, NKB]
[08/20/2024 22:04]  Bheldar Mokkar: Lord Bheldar Mokkar
[08/20/2024 22:04]  Afsky: An Lor Xen
[08/20/2024 22:04]  Afsky: An Lor Xen
[08/20/2024 22:04]  Incubo: * Incubo stumbles around in confusion and pain. *
[08/20/2024 22:04]  Warner the Watch: *area taunt*
[08/20/2024 22:04]  Afsky: An Lor Xen
[08/20/2024 22:04]  Krogu: Por Ort Grav
[08/20/2024 22:04]  Afsky: Afsky
[08/20/2024 22:04]  System: Guapo has completed the achievement: Relic Hunter (Basic).
[08/20/2024 22:04]  Ashley Stabah: Ashley Stabah
[08/20/2024 22:04]  Incubo: *resists poison*
[08/20/2024 22:04]  a mongbat: a mongbat
[08/20/2024 22:04]  Afsky: An Lor Xen
[08/20/2024 22:04]  D Bag: D Bag (Young)
[08/20/2024 22:04]  Afsky: Afsky
[08/20/2024 22:04]  System: Selfdenx has completed the achievement: Domestication (Basic).
[08/20/2024 22:04]  Incubo: Incubo
[08/20/2024 22:04]  a mongbat: a mongbat
[08/20/2024 22:04]  Warner the Watch: *area taunt*
[08/20/2024 22:04]  Incubo: *resists poison*
[08/20/2024 22:04]  Afsky: An Lor Xen
[08/20/2024 22:04]  Incubo: * Incubo stumbles around in confusion and pain. *
[08/20/2024 22:04]  UlfrikStabson: UlfrikStabson (Young)
[08/20/2024 22:04]  Afsky: An Lor Xen
[08/20/2024 22:04]  Afsky: An Lor Xen
[08/20/2024 22:04]  Incubo: *resists poison*
[08/20/2024 22:04]  You see: a mongbat corpse
[08/20/2024 22:04]  System: Ydora Wildyew has completed the achievement: Savant (Basic).
[08/20/2024 22:04]  Afsky: An Lor Xen
[08/20/2024 22:04]  Warner the Watch: *area taunt*
[08/20/2024 22:04]  System: Allukend has completed the achievement: Aspect Mastery (Basic).
[08/20/2024 22:04]  Afsky: An Lor Xen
[08/20/2024 22:04]  Sorshka: Sorshka (Young)
[08/20/2024 22:04]  Incubo: *resists poison*
[08/20/2024 22:04]  Afsky: An Lor Xen
[08/20/2024 22:04]  You see: a mongbat corpse
[08/20/2024 22:04]  Afsky: An Lor Xen
[08/20/2024 22:05]  Afsky: An Lor Xen
[08/20/2024 22:05]  Ashley Stabah: Ashley Stabah
[08/20/2024 22:05]  a grizzly bear: (summoned)
[08/20/2024 22:05]  a grizzly bear: a grizzly bear
[08/20/2024 22:05]  a brown bear: (summoned)
[08/20/2024 22:05]  a brown bear: a brown bear
[08/20/2024 22:05]  Grunkie: Grunkie (Young)
[08/20/2024 22:05]  Grunkie: Por Ort Grav
[08/20/2024 22:05]  Afsky: An Lor Xen
[08/20/2024 22:05]  Afsky: Afsky
[08/20/2024 22:05]  Grunkie: all guard
[08/20/2024 22:05]  Warner the Watch: *area taunt*
[08/20/2024 22:05]  Afsky: An Lor Xen
[08/20/2024 22:05]  Afsky: An Lor Xen
[08/20/2024 22:05]  You see: a mongbat corpse
[08/20/2024 22:05]  Afsky: An Lor Xen
[08/20/2024 22:05]  Afsky: An Lor Xen
[08/20/2024 22:05]  a mongbat: a mongbat
[08/20/2024 22:05]  Afsky: An Lor Xen
[08/20/2024 22:05]  Afsky: An Lor Xen
[08/20/2024 22:05]  Warner the Watch: *area taunt*
[08/20/2024 22:05]  Afsky: An Lor Xen
[08/20/2024 22:05]  Afsky: Afsky
[08/20/2024 22:05]  You see: a mongbat corpse
[08/20/2024 22:05]  System: Players cannot commit aggressive actions in that location.
[08/20/2024 22:05]  Afsky: Afsky
[08/20/2024 22:05]  System: Your campfire is now secure.
[08/20/2024 22:05]  Afsky: An Lor Xen
[08/20/2024 22:05]  Nancy.J.M: Nancy.J.M (Young)
[08/20/2024 22:05]  UlfrikStabson: UlfrikStabson (Young)
[08/20/2024 22:05]  Thr ain: Thr ain (Young)
[08/20/2024 22:05]  Afsky: An Lor Xen
[08/20/2024 22:05]  Warner the Watch: *area taunt*
[08/20/2024 22:05]  Afsky: Afsky
[08/20/2024 22:05]  Warner the Watch: The Knights Guild stands ever in the light of Virtue
[08/20/2024 22:05]  D Bag: D Bag (Young)
[08/20/2024 22:05]  Afsky: An Lor Xen
[08/20/2024 22:06]  Afsky: An Lor Xen
[08/20/2024 22:06]  Afsky: Afsky
[08/20/2024 22:06]  UlfrikStabson: UlfrikStabson (Young)
[08/20/2024 22:06]  Chimmy: Transmuter
[08/20/2024 22:06]  Chimmy: Chimmy
[08/20/2024 22:06]  Warner the Watch: *area taunt*
[08/20/2024 22:06]  Ashley Stabah: Ashley Stabah
[08/20/2024 22:06]  Afsky: An Lor Xen
[08/20/2024 22:06]  Krogu: Por Ort Grav
[08/20/2024 22:06]  Afsky: An Lor Xen
[08/20/2024 22:06]  Afsky: An Lor Xen
[08/20/2024 22:06]  Krogu: Por Ort Grav
[08/20/2024 22:06]  Afsky: Afsky
[08/20/2024 22:06]  Warner the Watch: *area taunt*
[08/20/2024 22:06]  Krogu: Por Ort Grav
[08/20/2024 22:06]  UlfrikStabson: UlfrikStabson (Young)
[08/20/2024 22:06]  Nancy.J.M: Nancy.J.M (Young)
[08/20/2024 22:06]  Krogu: Por Ort Grav
[08/20/2024 22:06]  D Bag: D Bag (Young)
[08/20/2024 22:06]  Afsky: An Lor Xen
[08/20/2024 22:06]  Krogu: Por Ort Grav
[08/20/2024 22:06]  You see: a giant rat corpse
[08/20/2024 22:06]  Afsky: An Lor Xen
[08/20/2024 22:06]  Krogu: Por Ort Grav
[08/20/2024 22:06]  a giant bat: a giant bat
[08/20/2024 22:06]  Afsky: An Lor Xen
[08/20/2024 22:06]  Afsky: An Lor Xen
[08/20/2024 22:06]  Krogu: In Vas Mani
[08/20/2024 22:06]  Warner the Watch: *area taunt*
[08/20/2024 22:06]  Afsky: Afsky
[08/20/2024 22:06]  Krogu: In Vas Mani
[08/20/2024 22:06]  Krogu: Por Ort Grav
[08/20/2024 22:06]  Afsky: An Lor Xen
[08/20/2024 22:06]  Afsky: An Lor Xen
[08/20/2024 22:06]  Ashley Stabah: Ashley Stabah
[08/20/2024 22:06]  a mongbat: a mongbat
[08/20/2024 22:06]  You see: a mongbat corpse
[08/20/2024 22:06]  Afsky: Afsky
[08/20/2024 22:06]  Warner the Watch: *area taunt*
[08/20/2024 22:07]  Afsky: An Lor Xen
[08/20/2024 22:07]  a giant bat: a giant bat
[08/20/2024 22:07]  Afsky: An Lor Xen
[08/20/2024 22:07]  Chimmy: Transmuter
[08/20/2024 22:07]  Chimmy: Chimmy
[08/20/2024 22:07]  Afsky: An Lor Xen
[08/20/2024 22:07]  Afsky: Afsky
[08/20/2024 22:07]  Warner the Watch: *area taunt*
[08/20/2024 22:07]  Afsky: An Lor Xen
[08/20/2024 22:07]  D Bag: D Bag (Young)
[08/20/2024 22:07]  Afsky: An Lor Xen
[08/20/2024 22:07]  FastandCurious: FastandCurious (Young)
[08/20/2024 22:07]  Afsky: An Lor Xen
[08/20/2024 22:07]  Afsky: An Lor Xen
[08/20/2024 22:07]  Afsky: Afsky
[08/20/2024 22:07]  Krogu: Por Ort Grav
[08/20/2024 22:07]  Afsky: Afsky
[08/20/2024 22:07]  Warner the Watch: *area taunt*
[08/20/2024 22:07]  Krogu: Por Ort Grav
[08/20/2024 22:07]  System: SpellStruck has completed the achievement: Versatility (Basic).
[08/20/2024 22:07]  Krogu: Por Ort Grav
[08/20/2024 22:07]  Afsky: An Lor Xen
[08/20/2024 22:07]  Krogu: Por Ort Grav
[08/20/2024 22:07]  BalBowa: BalBowa (Young)
[08/20/2024 22:07]  Afsky: Afsky
[08/20/2024 22:07]  You see: a mongbat corpse
[08/20/2024 22:07]  You see: a mongbat corpse
[08/20/2024 22:07]  Krogu: In Vas Mani
[08/20/2024 22:07]  Afsky: An Lor Xen
[08/20/2024 22:07]  Warner the Watch: *area taunt*
[08/20/2024 22:07]  UlfrikStabson: UlfrikStabson (Young)
[08/20/2024 22:07]  System: Andre P has completed the achievement: Scribe (Basic).
[08/20/2024 22:07]  Afsky: Afsky
[08/20/2024 22:07]  D Bag: D Bag (Young)
[08/20/2024 22:08]  a giant bat: a giant bat
[08/20/2024 22:08]  a mongbat: a mongbat
[08/20/2024 22:08]  Afsky: An Lor Xen
[08/20/2024 22:08]  Afsky: An Lor Xen
[08/20/2024 22:08]  Warner the Watch: *area taunt*
[08/20/2024 22:08]  Afsky: Afsky
[08/20/2024 22:08]  UlfrikStabson: UlfrikStabson (Young)
[08/20/2024 22:08]  You see: a mongbat corpse
[08/20/2024 22:08]  System: Players cannot commit aggressive actions in that location.
[08/20/2024 22:08]  Afsky: An Lor Xen
[08/20/2024 22:08]  Warner the Watch: Live by the Oath: Uphold the Principles, Maintain the Virtues and Observe the Code of Chivalry
[08/20/2024 22:08]  Thr ain: Thr ain (Young)
[08/20/2024 22:08]  Afsky: An Lor Xen
[08/20/2024 22:08]  Afsky: Afsky
[08/20/2024 22:08]  D Bag: D Bag (Young)
[08/20/2024 22:08]  Warner the Watch: *area taunt*
[08/20/2024 22:08]  Afsky: An Lor Xen
[08/20/2024 22:08]  Afsky: Afsky
[08/20/2024 22:08]  Krogu: Por Ort Grav
[08/20/2024 22:08]  Krogu: Por Ort Grav
[08/20/2024 22:08]  UlfrikStabson: UlfrikStabson (Young)
[08/20/2024 22:08]  System: Newbie Dude has completed the achievement: Beastial Slayer (Basic).
[08/20/2024 22:08]  Warner the Watch: *area taunt*
[08/20/2024 22:08]  Afsky: An Lor Xen
[08/20/2024 22:08]  Krogu: Por Ort Grav
[08/20/2024 22:08]  Afsky: An Lor Xen
[08/20/2024 22:08]  Afsky: Afsky
[08/20/2024 22:08]  Ashley Stabah: Ashley Stabah
[08/20/2024 22:08]  Krogu: Por Ort Grav
[08/20/2024 22:08]  Afsky: An Lor Xen
[08/20/2024 22:08]  Afsky: Afsky
[08/20/2024 22:09]  Krogu: Por Ort Grav
[08/20/2024 22:09]  D Bag: D Bag (Young)
[08/20/2024 22:09]  a giant bat: a giant bat
[08/20/2024 22:09]  Krogu: In Vas Mani
[08/20/2024 22:09]  Warner the Watch: *area taunt*
[08/20/2024 22:09]  Afsky: An Lor Xen
[08/20/2024 22:09]  You see: a mongbat corpse
[08/20/2024 22:09]  Krogu: Por Ort Grav
[08/20/2024 22:09]  Afsky: An Lor Xen
[08/20/2024 22:09]  Carver Al'whani: [Veteran, rekt]
[08/20/2024 22:09]  Carver Al'whani: Carver Al'whani
[08/20/2024 22:09]  Krogu: Por Ort Grav
[08/20/2024 22:09]  Afsky: Afsky
[08/20/2024 22:09]  Krogu: Por Ort Grav
[08/20/2024 22:09]  Pierre Pressiur: Pierre Pressiur
[08/20/2024 22:09]  a giant bat: a giant bat
[08/20/2024 22:09]  Krogu: In Vas Mani
[08/20/2024 22:09]  a giant rat: a giant rat
[08/20/2024 22:09]  Afsky: An Lor Xen
[08/20/2024 22:09]  Warner the Watch: *area taunt*
[08/20/2024 22:09]  Afsky: An Lor Xen
[08/20/2024 22:09]  Ashley Stabah: Ashley Stabah
[08/20/2024 22:09]  Afsky: An Lor Xen
[08/20/2024 22:09]  System: Your campfire is now secure.
[08/20/2024 22:09]  Afsky: An Lor Xen
[08/20/2024 22:09]  Afsky: Afsky
[08/20/2024 22:09]  Afsky: An Lor Xen
[08/20/2024 22:09]  FastandCurious: FastandCurious (Young)
[08/20/2024 22:09]  You see: a giant rat corpse
[08/20/2024 22:09]  System: Players cannot commit aggressive actions in that location.
[08/20/2024 22:09]  Warner the Watch: *area taunt*
[08/20/2024 22:09]  Afsky: Afsky
[08/20/2024 22:09]  Volkes: Volkes
[08/20/2024 22:09]  : dungeon wall
[08/20/2024 22:09]  You see: a mongbat corpse
[08/20/2024 22:09]  Afsky: An Lor Xen
[08/20/2024 22:09]  [Razor]: Warning: Bandages amount is now 0!
[08/20/2024 22:09]  UlfrikStabson: UlfrikStabson (Young)
[08/20/2024 22:09]  Afsky: An Lor Xen
[08/20/2024 22:09]  Afsky: Afsky
[08/20/2024 22:10]  Warner the Watch: *area taunt*
[08/20/2024 22:10]  D Bag: D Bag (Young)
[08/20/2024 22:10]  Afsky: An Lor Xen
[08/20/2024 22:10]  System: Your campfire is now secure.
[08/20/2024 22:10]  Ashley Stabah: Ashley Stabah
[08/20/2024 22:10]  Afsky: Afsky
[08/20/2024 22:10]  Voltio: Voltio
[08/20/2024 22:10]  a mongbat: a mongbat
[08/20/2024 22:10]  System: Alsiel has completed the achievement: Guardian of Nusero (Basic).
[08/20/2024 22:10]  CarterJC: CarterJC (Young)
[08/20/2024 22:10]  Warner the Watch: *area taunt*
[08/20/2024 22:10]  Afsky: An Lor Xen
[08/20/2024 22:10]  System: What do you wish to pacify? (you may target yourself for an area effect or the ground for a group effect)
[08/20/2024 22:10]  Afsky: An Lor Xen
[08/20/2024 22:10]  Ailiin: Target: a mongbat
[08/20/2024 22:10]  Razor: Attack: a mongbat
[08/20/2024 22:10]  System: Holy symbols remaining: 5/6
[08/20/2024 22:10]  Afsky: An Lor Xen
[08/20/2024 22:10]  You see: a mongbat corpse
[08/20/2024 22:10]  Chimmy: Transmuter
[08/20/2024 22:10]  Chimmy: Chimmy
[08/20/2024 22:10]  Grunkie: Grunkie (Young)
[08/20/2024 22:10]  a monitor hatchling: (summoned)
[08/20/2024 22:10]  a monitor hatchling: a monitor hatchling
[08/20/2024 22:10]  a primordial whelp: (summoned)
[08/20/2024 22:10]  a primordial whelp: a primordial whelp
[08/20/2024 22:10]  a flamehound: (summoned)
[08/20/2024 22:10]  a flamehound: a flamehound
[08/20/2024 22:10]  Afsky: An Lor Xen
[08/20/2024 22:10]  System: Max holy symbols earned (6/6)
[08/20/2024 22:10]  You see: a mongbat corpse
[08/20/2024 22:10]  Afsky: Afsky
[08/20/2024 22:10]  UlfrikStabson: UlfrikStabson (Young)
[08/20/2024 22:10]  a flamehound: (summoned)
[08/20/2024 22:10]  a flamehound: a flamehound
[08/20/2024 22:10]  a primordial whelp: (summoned)
[08/20/2024 22:10]  a primordial whelp: a primordial whelp
[08/20/2024 22:10]  a monitor hatchling: (summoned)
[08/20/2024 22:10]  a monitor hatchling: a monitor hatchling
[08/20/2024 22:10]  Grunkie: Grunkie (Young)
[08/20/2024 22:10]  Warner the Watch: *area taunt*
[08/20/2024 22:10]  FastandCurious: FastandCurious (Young)
[08/20/2024 22:10]  Afsky: An Lor Xen
[08/20/2024 22:10]  Afsky: Afsky
[08/20/2024 22:10]  a mongbat: a mongbat
[08/20/2024 22:10]  Warner the Watch: The Knights Guild stands ever in the light of Virtue
[08/20/2024 22:10]  Afsky: An Lor Xen
[08/20/2024 22:10]  Mirkwood Lulu: Wilderness Hero
[08/20/2024 22:10]  Mirkwood Lulu: Lady Mirkwood Lulu
[08/20/2024 22:10]  Warner the Watch: *area taunt*
[08/20/2024 22:10]  Afsky: An Lor Xen
[08/20/2024 22:10]  Afsky: Afsky
[08/20/2024 22:10]  Sanja: Sanja (Young)
[08/20/2024 22:11]  Afsky: Afsky
[08/20/2024 22:11]  D Bag: D Bag (Young)
[08/20/2024 22:11]  Chimmy: Transmuter
[08/20/2024 22:11]  Chimmy: Chimmy
[08/20/2024 22:11]  Nancy.J.M: Nancy.J.M (Young)
[08/20/2024 22:11]  You see: a mongbat corpse
[08/20/2024 22:11]  System: Players cannot commit aggressive actions in that location.
[08/20/2024 22:11]  Afsky: An Lor Xen
[08/20/2024 22:11]  Afsky: An Lor Xen
[08/20/2024 22:11]  Afsky: Afsky
[08/20/2024 22:11]  Warner the Watch: *area taunt*
[08/20/2024 22:11]  Afsky: An Lor Xen
[08/20/2024 22:11]  Afsky: Afsky
[08/20/2024 22:11]  FastandCurious: FastandCurious (Young)
[08/20/2024 22:11]  D Bag: D Bag (Young)
[08/20/2024 22:11]  System: What do you wish to pacify? (you may target yourself for an area effect or the ground for a group effect)
[08/20/2024 22:11]  Afsky: An Lor Xen
[08/20/2024 22:11]  Sanja: Sanja (Young)
[08/20/2024 22:11]  Afsky: Afsky
[08/20/2024 22:11]  Ashley Stabah: Ashley Stabah
[08/20/2024 22:11]  Razor: Target: Ailiin
[08/20/2024 22:11]  System: You fail to pacify any nearby creatures.
[08/20/2024 22:11]  System: Players cannot commit aggressive actions in that location.
[08/20/2024 22:11]  System: Players cannot commit aggressive actions in that location.
[08/20/2024 22:11]  System: You may not loot this corpse.
[08/20/2024 22:11]  System: Players cannot commit aggressive actions in that location.
[08/20/2024 22:11]  System: You may not loot this corpse.
[08/20/2024 22:11]  System: You may not loot this corpse.
[08/20/2024 22:11]  System: You may not loot this corpse.
[08/20/2024 22:11]  System: You may not loot this corpse.
[08/20/2024 22:11]  System: Players cannot commit aggressive actions in that location.
[08/20/2024 22:11]  Warner the Watch: *area taunt*
[08/20/2024 22:11]  Afsky: An Lor Xen
[08/20/2024 22:11]  Afsky: Afsky
[08/20/2024 22:11]  UlfrikStabson: UlfrikStabson (Young)
[08/20/2024 22:11]  D Bag: D Bag (Young)
[08/20/2024 22:11]  Warner the Watch: *area taunt*
[08/20/2024 22:11]  Afsky: An Lor Xen
[08/20/2024 22:11]  FastandCurious: FastandCurious (Young)
[08/20/2024 22:11]  Afsky: Afsky
[08/20/2024 22:11]  Grunkie: Grunkie (Young)
[08/20/2024 22:12]  Afsky: An Lor Xen
[08/20/2024 22:12]  Afsky: Afsky
[08/20/2024 22:12]  D Bag: D Bag (Young)
[08/20/2024 22:12]  Warner the Watch: *area taunt*
[08/20/2024 22:12]  FastandCurious: FastandCurious (Young)
[08/20/2024 22:12]  Sanja: Sanja (Young)
[08/20/2024 22:12]  a zombie: a zombie
[08/20/2024 22:12]  Afsky: An Lor Xen
[08/20/2024 22:12]  : leaves
[08/20/2024 22:12]  Afsky: An Lor Xen
[08/20/2024 22:12]  Ashley Stabah: Ashley Stabah
[08/20/2024 22:12]  Afsky: An Lor Xen
[08/20/2024 22:12]  Slobbo Gobbo: Slobbo Gobbo (Young)
[08/20/2024 22:12]  Warner the Watch: *area taunt*
[08/20/2024 22:12]  Afsky: Afsky
[08/20/2024 22:12]  System: PitteD has completed the achievement: Transmutation (Basic).
[08/20/2024 22:12]  Moce: Moce (Young)
[08/20/2024 22:12]  Chimmy: Transmuter
[08/20/2024 22:12]  Chimmy: Chimmy
[08/20/2024 22:12]  Sir Digsalot: [Loyal, NKB]
[08/20/2024 22:12]  Sir Digsalot: Sir Digsalot
[08/20/2024 22:12]  Afsky: An Lor Xen
[08/20/2024 22:12]  BukakkeSaka: Legendary Scribe
[08/20/2024 22:12]  BukakkeSaka: [The Tavern], [tT]
[08/20/2024 22:12]  BukakkeSaka: BukakkeSaka
[08/20/2024 22:12]  Valuan: Valuan (Young)
[08/20/2024 22:12]  Afsky: Afsky
[08/20/2024 22:12]  Warner the Watch: *area taunt*
[08/20/2024 22:12]  You see: a mongbat corpse
[08/20/2024 22:12]  Afsky: An Lor Xen
[08/20/2024 22:12]  Sir Digsalot: An Lor Xen
[08/20/2024 22:12]  Afsky: An Lor Xen
[08/20/2024 22:12]  a mongbat: a mongbat
[08/20/2024 22:12]  a mongbat: a mongbat
[08/20/2024 22:12]  Afsky: Afsky
[08/20/2024 22:12]  Sir Digsalot: An Lor Xen
[08/20/2024 22:12]  Sanja: Sanja (Young)
[08/20/2024 22:12]  a mongbat: a mongbat
[08/20/2024 22:12]  Oliver Ore Smack: Oliver Ore Smack
[08/20/2024 22:12]  a familiar: (tame)
[08/20/2024 22:12]  a familiar: a familiar
[08/20/2024 22:12]  a guar: (tame)
[08/20/2024 22:12]  a guar: a guar
[08/20/2024 22:12]  a guar: (tame)
[08/20/2024 22:12]  a guar: a guar
[08/20/2024 22:12]  Ashley Stabah: Ashley Stabah
[08/20/2024 22:12]  Sir Digsalot: An Lor Xen
[08/20/2024 22:12]  a colossal frog: (tame)
[08/20/2024 22:12]  a colossal frog: a colossal frog
[08/20/2024 22:13]  a giant rat: a giant rat
[08/20/2024 22:13]  FastandCurious: FastandCurious (Young)
[08/20/2024 22:13]  Sir Digsalot: An Lor Xen
[08/20/2024 22:13]  Afsky: An Lor Xen
[08/20/2024 22:13]  Sir Digsalot: An Lor Xen
[08/20/2024 22:13]  Warner the Watch: *area taunt*
[08/20/2024 22:13]  Afsky: An Lor Xen
[08/20/2024 22:13]  Sir Digsalot: An Lor Xen
[08/20/2024 22:13]  Afsky: Afsky
[08/20/2024 22:13]  You see: a mongbat corpse
[08/20/2024 22:13]  System: Players cannot commit aggressive actions in that location.
[08/20/2024 22:13]  Sir Digsalot: An Lor Xen
[08/20/2024 22:13]  Sir Digsalot: [Loyal, NKB]
[08/20/2024 22:13]  Sir Digsalot: Sir Digsalot
[08/20/2024 22:13]  Mattss: Mattss
[08/20/2024 22:13]  Afsky: An Lor Xen
[08/20/2024 22:13]  UlfrikStabson: UlfrikStabson (Young)
[08/20/2024 22:13]  You see: a giant rat corpse
[08/20/2024 22:13]  Sir Digsalot: An Lor Xen
[08/20/2024 22:13]  You see: a mongbat corpse
[08/20/2024 22:13]  System: Players cannot commit aggressive actions in that location.
[08/20/2024 22:13]  Afsky: Afsky
[08/20/2024 22:13]  You see: a mongbat corpse
[08/20/2024 22:13]  Slobbo Gobbo: Slobbo Gobbo (Young)
[08/20/2024 22:13]  Sir Digsalot: An Lor Xen
[08/20/2024 22:13]  Warner the Watch: *area taunt*
[08/20/2024 22:13]  Krogu: Por Ort Grav
[08/20/2024 22:13]  Llewbach: Llewbach (Young)
[08/20/2024 22:13]  Warner the Watch: If ever in need of aid, see thee the Knights Guild
[08/20/2024 22:13]  Sir Digsalot: An Lor Xen
[08/20/2024 22:13]  D Bag: D Bag (Young)
[08/20/2024 22:13]  Krogu: Por Ort Grav
[08/20/2024 22:13]  Thr ain: Thr ain (Young)
[08/20/2024 22:13]  You see: a mongbat corpse
[08/20/2024 22:13]  Sir Digsalot: An Lor Xen
[08/20/2024 22:13]  Afsky: An Lor Xen
[08/20/2024 22:13]  Krogu: Por Ort Grav
[08/20/2024 22:13]  Sir Digsalot: An Lor Xen
[08/20/2024 22:13]  Afsky: Afsky
[08/20/2024 22:13]  Sir Digsalot: An Lor Xen
[08/20/2024 22:13]  Krogu: Por Ort Grav
[08/20/2024 22:13]  Sir Digsalot: An Lor Xen
[08/20/2024 22:13]  Krogu: Por Ort Grav
[08/20/2024 22:13]  Ashley Stabah: Ashley Stabah
[08/20/2024 22:13]  Warner the Watch: *area taunt*
[08/20/2024 22:13]  Sir Digsalot: An Lor Xen
[08/20/2024 22:13]  Afsky: An Lor Xen
[08/20/2024 22:13]  Krogu: Por Ort Grav
[08/20/2024 22:13]  Afsky: Afsky
[08/20/2024 22:13]  Sir Digsalot: An Lor Xen
[08/20/2024 22:13]  You see: the remains of FastandCurious
[08/20/2024 22:13]  Krogu: In Vas Mani
[08/20/2024 22:13]  Sir Digsalot: An Lor Xen
[08/20/2024 22:13]  Sir Digsalot: An Lor Xen
[08/20/2024 22:13]  Afsky: An Lor Xen
[08/20/2024 22:13]  Krogu: Por Ort Grav
[08/20/2024 22:13]  Sir Digsalot: An Lor Xen
[08/20/2024 22:13]  Afsky: An Lor Xen
[08/20/2024 22:13]  Warner the Watch: *area taunt*
[08/20/2024 22:13]  D Bag: D Bag (Young)
[08/20/2024 22:13]  Sir Digsalot: An Lor Xen
[08/20/2024 22:14]  Afsky: Afsky
[08/20/2024 22:14]  Sir Digsalot: An Lor Xen
[08/20/2024 22:14]  FastandCurious: FastandCurious (Young)
[08/20/2024 22:14]  Sir Digsalot: An Lor Xen
[08/20/2024 22:14]  BalBowa: BalBowa (Young)
[08/20/2024 22:14]  Afsky: An Lor Xen
[08/20/2024 22:14]  Sir Digsalot: An Lor Xen
[08/20/2024 22:14]  Afsky: Afsky
[08/20/2024 22:14]  Krogu: Por Corp Wis
[08/20/2024 22:14]  Sir Digsalot: An Lor Xen
[08/20/2024 22:14]  Ashley Stabah: Ashley Stabah
[08/20/2024 22:14]  Sir Digsalot: An Lor Xen
[08/20/2024 22:14]  Sir Digsalot: [Loyal, NKB]
[08/20/2024 22:14]  Sir Digsalot: Sir Digsalot
[08/20/2024 22:14]  Warner the Watch: *area taunt*
[08/20/2024 22:14]  Sir Digsalot: An Lor Xen
[08/20/2024 22:14]  Krogu: Por Corp Wis
[08/20/2024 22:14]  Moce: Moce (Young)
[08/20/2024 22:14]  Afsky: An Lor Xen
[08/20/2024 22:14]  Sanja: Sanja (Young)
[08/20/2024 22:14]  Sir Digsalot: An Lor Xen
[08/20/2024 22:14]  Afsky: Afsky
[08/20/2024 22:14]  Sir Digsalot: An Lor Xen
[08/20/2024 22:14]  UlfrikStabson: UlfrikStabson (Young)
[08/20/2024 22:14]  Krogu: In Vas Mani
[08/20/2024 22:14]  Sir Digsalot: An Lor Xen
[08/20/2024 22:14]  D Bag: D Bag (Young)
[08/20/2024 22:14]  Chimmy: Transmuter
[08/20/2024 22:14]  Chimmy: Chimmy
[08/20/2024 22:14]  Sir Digsalot: An Lor Xen
[08/20/2024 22:14]  Krogu: Por Corp Wis
[08/20/2024 22:14]  Warner the Watch: *area taunt*
[08/20/2024 22:14]  Afsky: An Lor Xen
[08/20/2024 22:14]  Sir Digsalot: An Lor Xen
[08/20/2024 22:14]  Sir Digsalot: [Loyal, NKB]
[08/20/2024 22:14]  Sir Digsalot: Sir Digsalot
[08/20/2024 22:14]  Afsky: Afsky
[08/20/2024 22:14]  Krogu: Por Corp Wis
[08/20/2024 22:14]  a wounded harpy: a wounded harpy
[08/20/2024 22:14]  Sir Digsalot: An Lor Xen
[08/20/2024 22:14]  Krogu: Por Corp Wis
[08/20/2024 22:14]  Sir Digsalot: An Lor Xen
[08/20/2024 22:14]  a mongbat: a mongbat
[08/20/2024 22:14]  You see: a giant rat corpse
[08/20/2024 22:14]  Afsky: An Lor Xen
[08/20/2024 22:14]  Sir Digsalot: An Lor Xen
[08/20/2024 22:14]  flat earth: Cambria
[08/20/2024 22:14]  flat earth: [DONT TRUST NASA, Syn]
[08/20/2024 22:14]  flat earth: flat earth
[08/20/2024 22:14]  BukakkeSaka: Legendary Scribe
[08/20/2024 22:14]  BukakkeSaka: [The Tavern], [tT]
[08/20/2024 22:14]  BukakkeSaka: BukakkeSaka
[08/20/2024 22:14]  Afsky: An Lor Xen
[08/20/2024 22:14]  Sir Digsalot: An Lor Xen
[08/20/2024 22:14]  a giant bat: a giant bat
[08/20/2024 22:14]  Warner the Watch: *area taunt*
[08/20/2024 22:14]  Afsky: Afsky
[08/20/2024 22:14]  Sir Digsalot: An Lor Xen
[08/20/2024 22:14]  a giant bat: a giant bat
[08/20/2024 22:14]  Urzula: [The Tavern], [tT]
[08/20/2024 22:14]  Urzula: Urzula
[08/20/2024 22:14]  Sir Digsalot: An Lor Xen
[08/20/2024 22:14]  You see: a mongbat corpse
[08/20/2024 22:14]  System: Players cannot commit aggressive actions in that location.
[08/20/2024 22:15]  FastandCurious: FastandCurious (Young)
[08/20/2024 22:15]  Sir Digsalot: An Lor Xen
[08/20/2024 22:15]  Afsky: An Lor Xen
[08/20/2024 22:15]  Afsky: Afsky
[08/20/2024 22:15]  Sir Digsalot: An Lor Xen
[08/20/2024 22:15]  Sir Digsalot: An Lor Xen
[08/20/2024 22:15]  Sir Digsalot: An Lor Xen
[08/20/2024 22:15]  Warner the Watch: *area taunt*
[08/20/2024 22:15]  Sir Digsalot: [Loyal, NKB]
[08/20/2024 22:15]  Sir Digsalot: Sir Digsalot
[08/20/2024 22:15]  Sir Digsalot: An Lor Xen
[08/20/2024 22:15]  Afsky: An Lor Xen
[08/20/2024 22:15]  a mongbat: a mongbat
[08/20/2024 22:15]  Sir Digsalot: An Lor Xen
[08/20/2024 22:15]  Afsky: An Lor Xen
[08/20/2024 22:15]  Ashley Stabah: Ashley Stabah
[08/20/2024 22:15]  Thr ain: Thr ain (Young)
[08/20/2024 22:15]  Afsky: Afsky
[08/20/2024 22:15]  Sir Digsalot: An Lor Xen
[08/20/2024 22:15]  MyFactionChar: MyFactionChar (Young)
[08/20/2024 22:15]  FastandCurious: FastandCurious (Young)
[08/20/2024 22:15]  Sir Digsalot: An Lor Xen
[08/20/2024 22:15]  Sir Digsalot: An Lor Xen
[08/20/2024 22:15]  Llewbach: Llewbach (Young)
[08/20/2024 22:15]  Afsky: An Lor Xen
[08/20/2024 22:15]  Warner the Watch: *area taunt*
[08/20/2024 22:15]  a wounded harpy: a wounded harpy
[08/20/2024 22:15]  a headless: a headless
[08/20/2024 22:15]  Afsky: Afsky
[08/20/2024 22:15]  Sir Digsalot: An Lor Xen
[08/20/2024 22:15]  Urzula: [The Tavern], [tT]
[08/20/2024 22:15]  Urzula: Urzula
[08/20/2024 22:15]  You see: a mongbat corpse
[08/20/2024 22:15]  Romul: Romul (Young)
[08/20/2024 22:15]  Sir Digsalot: An Lor Xen
[08/20/2024 22:15]  a corpse eater: (summoned)
[08/20/2024 22:15]  a corpse eater: a corpse eater
[08/20/2024 22:15]  a grizzly bear: (summoned)
[08/20/2024 22:15]  a grizzly bear: a grizzly bear
[08/20/2024 22:15]  a primordial whelp: (summoned)
[08/20/2024 22:15]  a primordial whelp: a primordial whelp
[08/20/2024 22:15]  a primordial whelp: (summoned)
[08/20/2024 22:15]  a primordial whelp: a primordial whelp
[08/20/2024 22:15]  You see: a mongbat corpse
[08/20/2024 22:15]  System: Players cannot commit aggressive actions in that location.
[08/20/2024 22:15]  System: Your campfire is now secure.
[08/20/2024 22:15]  UlfrikStabson: UlfrikStabson (Young)
[08/20/2024 22:15]  Sir Digsalot: An Lor Xen
[08/20/2024 22:15]  Chimmy: Transmuter
[08/20/2024 22:15]  Chimmy: Chimmy
[08/20/2024 22:15]  Ashley Stabah: Ashley Stabah
[08/20/2024 22:15]  Sir Digsalot: An Lor Xen
[08/20/2024 22:15]  Afsky: An Lor Xen
[08/20/2024 22:15]  Urzula: In Vas Mani
[08/20/2024 22:15]  Afsky: Afsky
[08/20/2024 22:15]  Sir Digsalot: An Lor Xen
[08/20/2024 22:15]  System: Your campfire is now secure.
[08/20/2024 22:15]  Warner the Watch: *area taunt*
[08/20/2024 22:15]  D Bag: D Bag (Young)
[08/20/2024 22:15]  Sir Digsalot: An Lor Xen
[08/20/2024 22:15]  Urzula: In Vas Mani
[08/20/2024 22:15]  Sir Digsalot: An Lor Xen
[08/20/2024 22:15]  Krogu: An Lor Xen
[08/20/2024 22:15]  Warner the Watch: The Knights Guild stands ever in the light of Virtue
[08/20/2024 22:15]  Afsky: An Lor Xen
[08/20/2024 22:15]  Krogu: An Lor Xen
[08/20/2024 22:15]  Sir Digsalot: An Lor Xen
[08/20/2024 22:15]  Sanja: Sanja (Young)
[08/20/2024 22:15]  Afsky: Afsky
[08/20/2024 22:15]  UlfrikStabson: UlfrikStabson (Young)
[08/20/2024 22:15]  Krogu: An Lor Xen
[08/20/2024 22:16]  a mongbat: a mongbat
[08/20/2024 22:16]  Sir Digsalot: An Lor Xen
[08/20/2024 22:16]  Krogu: An Lor Xen
[08/20/2024 22:16]  Krogu: Krogu (Young)
[08/20/2024 22:16]  Urzula: In Vas Mani
[08/20/2024 22:16]  Sir Digsalot: An Lor Xen
[08/20/2024 22:16]  Krogu: An Lor Xen
[08/20/2024 22:16]  CarterJC: CarterJC (Young)
[08/20/2024 22:16]  System: Robert Zombie has completed the achievement: Aspect Mastery (Advanced).
[08/20/2024 22:16]  Krogu: An Lor Xen
[08/20/2024 22:16]  Warner the Watch: *area taunt*
[08/20/2024 22:16]  Sir Digsalot: An Lor Xen
[08/20/2024 22:16]  Sanja: Sanja (Young)
[08/20/2024 22:16]  FastandCurious: FastandCurious (Young)
[08/20/2024 22:16]  Afsky: An Lor Xen
[08/20/2024 22:16]  You see: a mongbat corpse
[08/20/2024 22:16]  Krogu: An Lor Xen
[08/20/2024 22:16]  Urzula: In Vas Mani
[08/20/2024 22:16]  Sir Digsalot: An Lor Xen
[08/20/2024 22:16]  Krogu: An Lor Xen
[08/20/2024 22:16]  Afsky: An Lor Xen
[08/20/2024 22:16]  Krogu: An Lor Xen
[08/20/2024 22:16]  Sir Digsalot: An Lor Xen
[08/20/2024 22:16]  Sir Digsalot: [Loyal, NKB]
[08/20/2024 22:16]  Sir Digsalot: Sir Digsalot
[08/20/2024 22:16]  Afsky: An Lor Xen
[08/20/2024 22:16]  Krogu: An Lor Xen
[08/20/2024 22:16]  Krogu: Krogu (Young)
[08/20/2024 22:16]  Sir Digsalot: An Lor Xen
[08/20/2024 22:16]  Newdie: Newdie (Young)
[08/20/2024 22:16]  Afsky: Afsky
[08/20/2024 22:16]  Krogu: An Lor Xen
[08/20/2024 22:16]  UlfrikStabson: UlfrikStabson (Young)
[08/20/2024 22:16]  Thr ain: Thr ain (Young)
[08/20/2024 22:16]  Krogu: An Lor Xen
[08/20/2024 22:16]  Sir Digsalot: An Lor Xen
[08/20/2024 22:16]  Sir Digsalot: [Loyal, NKB]
[08/20/2024 22:16]  Sir Digsalot: Sir Digsalot
[08/20/2024 22:16]  Krogu: An Lor Xen
[08/20/2024 22:16]  Sir Digsalot: An Lor Xen
[08/20/2024 22:16]  Afsky: An Lor Xen
[08/20/2024 22:16]  Warner the Watch: *area taunt*
[08/20/2024 22:16]  Krogu: An Lor Xen
[08/20/2024 22:16]  Urzula: In Vas Mani
[08/20/2024 22:16]  Sir Digsalot: An Lor Xen
[08/20/2024 22:16]  Krogu: An Lor Xen
[08/20/2024 22:16]  Afsky: An Lor Xen
[08/20/2024 22:16]  System: <<>> (<<>>) guild has reached prestige level 23.
[08/20/2024 22:16]  Krogu: An Lor Xen
[08/20/2024 22:16]  Sir Digsalot: An Lor Xen
[08/20/2024 22:16]  Afsky: An Lor Xen
[08/20/2024 22:16]  Krogu: An Lor Xen
[08/20/2024 22:16]  D Bag: D Bag (Young)
[08/20/2024 22:16]  Volkes: Volkes
[08/20/2024 22:16]  a fire elemental: (summoned)
[08/20/2024 22:16]  a fire elemental: a fire elemental
[08/20/2024 22:16]  a fire elemental: (summoned)
[08/20/2024 22:16]  a fire elemental: a fire elemental
[08/20/2024 22:16]  Sir Digsalot: An Lor Xen
[08/20/2024 22:16]  Sir Digsalot: [Loyal, NKB]
[08/20/2024 22:16]  Sir Digsalot: Sir Digsalot
[08/20/2024 22:16]  Krogu: An Lor Xen
[08/20/2024 22:16]  Afsky: An Lor Xen
[08/20/2024 22:16]  Volkes: G2ZZZZZZ1ZZZZZZZZZZZZ2ZZZZZZZ2ZZZZZZZZ2ZZZZZZZXXXXXXXXXXXXXXXXXXXXGZWWWWWWWWWW
[08/20/2024 22:16]  Ashley Stabah: Ashley Stabah
[08/20/2024 22:16]  System: The world will save in 15 seconds.
[08/20/2024 22:16]  Krogu: An Lor Xen
[08/20/2024 22:16]  Sir Digsalot: An Lor Xen
[08/20/2024 22:16]  Afsky: An Lor Xen
[08/20/2024 22:16]  Urzula: In Vas Mani
[08/20/2024 22:16]  Krogu: An Lor Xen
[08/20/2024 22:16]  Afsky: Afsky
[08/20/2024 22:16]  Sir Digsalot: An Lor Xen
[08/20/2024 22:16]  Sir Digsalot: [Loyal, NKB]
[08/20/2024 22:16]  Sir Digsalot: Sir Digsalot
[08/20/2024 22:16]  System: Tim Whatley has completed the achievement: Artificers Enclave Dignitary.
[08/20/2024 22:16]  Krogu: An Lor Xen
[08/20/2024 22:16]  Warner the Watch: *area taunt*
[08/20/2024 22:16]  Krogu: An Lor Xen
[08/20/2024 22:16]  Afsky: An Lor Xen
[08/20/2024 22:16]  Sir Digsalot: An Lor Xen
[08/20/2024 22:16]  Krogu: An Lor Xen
[08/20/2024 22:16]  Urzula: In Vas Mani
[08/20/2024 22:16]  Afsky: An Lor Xen
[08/20/2024 22:16]  Sir Digsalot: An Lor Xen
[08/20/2024 22:16]  Krogu: An Lor Xen
[08/20/2024 22:16]  Sir Digsalot: [Loyal, NKB]
[08/20/2024 22:16]  Sir Digsalot: Sir Digsalot
[08/20/2024 22:16]  Krogu: An Lor Xen
[08/20/2024 22:16]  Krogu: Krogu (Young)
[08/20/2024 22:16]  Afsky: Afsky
[08/20/2024 22:16]  System: The world is saving, please wait.
[08/20/2024 22:16]  System: World save complete. The entire process took 2.6 seconds.
[08/20/2024 22:16]  Urzula: In Vas Mani
[08/20/2024 22:16]  You see: a wounded harpy corpse
[08/20/2024 22:16]  Krogu: An Lor Xen
[08/20/2024 22:16]  Krogu: Krogu (Young)
[08/20/2024 22:16]  Llewbach: Llewbach (Young)
[08/20/2024 22:16]  Krogu: An Lor Xen
[08/20/2024 22:17]  Warner the Watch: *area taunt*
[08/20/2024 22:17]  Krogu: An Lor Xen
[08/20/2024 22:17]  Anrak Mithrandir: Anrak Mithrandir (Young)
[08/20/2024 22:17]  Afsky: An Lor Xen
[08/20/2024 22:17]  Krogu: An Lor Xen
[08/20/2024 22:17]  Afsky: Afsky
[08/20/2024 22:17]  Krogu: An Lor Xen
[08/20/2024 22:17]  Krogu: An Lor Xen
[08/20/2024 22:17]  Sir Digsalot: An Lor Xen
[08/20/2024 22:17]  UlfrikStabson: UlfrikStabson (Young)
[08/20/2024 22:17]  Dashart: Lord Dashart
[08/20/2024 22:17]  Krogu: An Lor Xen
[08/20/2024 22:17]  Sir Digsalot: An Lor Xen
[08/20/2024 22:17]  FastandCurious: FastandCurious (Young)
[08/20/2024 22:17]  Krogu: An Lor Xen
[08/20/2024 22:17]  Krogu: Krogu (Young)
[08/20/2024 22:17]  Sir Digsalot: [Loyal, NKB]
[08/20/2024 22:17]  Sir Digsalot: Sir Digsalot
[08/20/2024 22:17]  Afsky: An Lor Xen
[08/20/2024 22:17]  Krogu: An Lor Xen
[08/20/2024 22:17]  Krogu: Krogu (Young)
[08/20/2024 22:17]  Warner the Watch: *area taunt*
[08/20/2024 22:17]  Afsky: Afsky
[08/20/2024 22:17]  Krogu: Krogu (Young)
[08/20/2024 22:17]  CarterJC: CarterJC (Young)
[08/20/2024 22:17]  Ashley Stabah: Ashley Stabah
[08/20/2024 22:17]  a mongbat: a mongbat
[08/20/2024 22:17]  a mongbat: a mongbat
[08/20/2024 22:17]  Afsky: An Lor Xen
[08/20/2024 22:17]  Afsky: Afsky
[08/20/2024 22:17]  Sir Digsalot: An Lor Xen
[08/20/2024 22:17]  BukakkeSaka: Legendary Scribe
[08/20/2024 22:17]  BukakkeSaka: [The Tavern], [tT]
[08/20/2024 22:17]  BukakkeSaka: BukakkeSaka
[08/20/2024 22:17]  Sir Digsalot: [Loyal, NKB]
[08/20/2024 22:17]  Sir Digsalot: Sir Digsalot
[08/20/2024 22:17]  Warner the Watch: *area taunt*
[08/20/2024 22:17]  You see: a mongbat corpse
[08/20/2024 22:17]  Mirkwood Lulu: Wilderness Hero
[08/20/2024 22:17]  Mirkwood Lulu: Lady Mirkwood Lulu
[08/20/2024 22:17]  D Bag: D Bag (Young)
[08/20/2024 22:17]  System: Players cannot commit aggressive actions in that location.
[08/20/2024 22:17]  Afsky: An Lor Xen
[08/20/2024 22:17]  Chimmy: Transmuter
[08/20/2024 22:17]  Chimmy: Chimmy
[08/20/2024 22:17]  Afsky: Afsky
[08/20/2024 22:17]  FastandCurious: FastandCurious (Young)
[08/20/2024 22:17]  System: KyHu Princess has completed the achievement: Guardian of Nusero (Basic).
[08/20/2024 22:17]  Afsky: An Lor Xen
[08/20/2024 22:17]  Warner the Watch: *area taunt*
[08/20/2024 22:17]  Sir Digsalot: An Lor Xen
[08/20/2024 22:17]  Afsky: An Lor Xen
[08/20/2024 22:17]  Sir Digsalot: [Loyal, NKB]
[08/20/2024 22:17]  Sir Digsalot: Sir Digsalot
[08/20/2024 22:17]  a giant frog: a giant frog
[08/20/2024 22:18]  UlfrikStabson: UlfrikStabson (Young)
[08/20/2024 22:18]  Afsky: Afsky
[08/20/2024 22:18]  Anrak Mithrandir: Anrak Mithrandir (Young)
[08/20/2024 22:18]  Afsky: An Lor Xen
[08/20/2024 22:18]  Afsky: An Lor Xen
[08/20/2024 22:18]  You see: a mongbat corpse
[08/20/2024 22:18]  D Bag: D Bag (Young)
[08/20/2024 22:18]  Warner the Watch: *area taunt*
[08/20/2024 22:18]  Afsky: Afsky
[08/20/2024 22:18]  Bheldar Mokkar: Adventurer Initiate
[08/20/2024 22:18]  Bheldar Mokkar: [Loyal, NKB]
[08/20/2024 22:18]  Bheldar Mokkar: Lord Bheldar Mokkar
[08/20/2024 22:18]  Sir Digsalot: An Lor Xen
[08/20/2024 22:18]  a wounded harpy: a wounded harpy
[08/20/2024 22:18]  Sir Digsalot: An Lor Xen
[08/20/2024 22:18]  Afsky: An Lor Xen
[08/20/2024 22:18]  You see: a giant rat corpse
[08/20/2024 22:18]  You see: a mongbat corpse
[08/20/2024 22:18]  Sir Digsalot: An Lor Xen
[08/20/2024 22:18]  Krogu: An Lor Xen
[08/20/2024 22:18]  Afsky: Afsky
[08/20/2024 22:18]  Sir Digsalot: [Loyal, NKB]
[08/20/2024 22:18]  Sir Digsalot: Sir Digsalot
[08/20/2024 22:18]  Krogu: An Lor Xen
[08/20/2024 22:18]  Ashley Stabah: Ashley Stabah
[08/20/2024 22:18]  Krogu: Krogu (Young)
[08/20/2024 22:18]  Warner the Watch: The Knights Guild stands ever in the light of Virtue
[08/20/2024 22:18]  Krogu: An Lor Xen
[08/20/2024 22:18]  Warner the Watch: *area taunt*
[08/20/2024 22:18]  Krogu: An Lor Xen
[08/20/2024 22:18]  Krogu: An Lor Xen
[08/20/2024 22:18]  System: Rygar Blackhand has completed the achievement: Guardian of Ossuary (Basic).
[08/20/2024 22:18]  You see: a mongbat corpse
[08/20/2024 22:18]  Afsky: An Lor Xen
[08/20/2024 22:18]  Krogu: An Lor Xen
[08/20/2024 22:18]  Afsky: Afsky
[08/20/2024 22:18]  Krogu: An Lor Xen
[08/20/2024 22:18]  UlfrikStabson: UlfrikStabson (Young)
[08/20/2024 22:18]  Krogu: An Lor Xen
[08/20/2024 22:18]  Sir Digsalot: An Lor Xen
[08/20/2024 22:18]  Krogu: An Lor Xen
[08/20/2024 22:18]  D Bag: D Bag (Young)
[08/20/2024 22:18]  Krogu: An Lor Xen
[08/20/2024 22:18]  Sir Digsalot: An Lor Xen
[08/20/2024 22:18]  Llewbach: Llewbach (Young)
[08/20/2024 22:18]  Afsky: An Lor Xen
[08/20/2024 22:18]  Krogu: An Lor Xen
[08/20/2024 22:18]  Krogu: Krogu (Young)
[08/20/2024 22:18]  Sir Digsalot: [Loyal, NKB]
[08/20/2024 22:18]  Sir Digsalot: Sir Digsalot
[08/20/2024 22:18]  Sanja: Sanja (Young)
[08/20/2024 22:18]  Warner the Watch: *area taunt*
[08/20/2024 22:18]  Afsky: Afsky
[08/20/2024 22:18]  Krogu: An Lor Xen
[08/20/2024 22:18]  Krogu: An Lor Xen
[08/20/2024 22:18]  Krogu: Krogu (Young)
[08/20/2024 22:18]  Krogu: An Lor Xen
[08/20/2024 22:18]  Bheldar Mokkar: Adventurer Initiate
[08/20/2024 22:18]  Bheldar Mokkar: [Loyal, NKB]
[08/20/2024 22:18]  Bheldar Mokkar: Lord Bheldar Mokkar
[08/20/2024 22:18]  Krogu: An Lor Xen
[08/20/2024 22:18]  Krogu: Krogu (Young)
[08/20/2024 22:19]  Krogu: An Lor Xen
[08/20/2024 22:19]  Afsky: An Lor Xen
[08/20/2024 22:19]  Krogu: An Lor Xen
[08/20/2024 22:19]  System: Tamioko has completed the achievement: Construct Slayer (Advanced).
[08/20/2024 22:19]  Afsky: An Lor Xen
[08/20/2024 22:19]  Krogu: An Lor Xen
[08/20/2024 22:19]  Sir Digsalot: An Lor Xen
[08/20/2024 22:19]  Afsky: Afsky
[08/20/2024 22:19]  a giant bat: a giant bat
[08/20/2024 22:19]  Krogu: An Lor Xen
[08/20/2024 22:19]  Warner the Watch: *area taunt*
[08/20/2024 22:19]  Krogu: An Lor Xen
[08/20/2024 22:19]  Sir Digsalot: An Lor Xen
[08/20/2024 22:19]  Ashley Stabah: Ashley Stabah
[08/20/2024 22:19]  Krogu: An Lor Xen
[08/20/2024 22:19]  Sir Digsalot: An Lor Xen
[08/20/2024 22:19]  Krogu: An Lor Xen
[08/20/2024 22:19]  You see: the remains of Llewbach
[08/20/2024 22:19]  Afsky: An Lor Xen
[08/20/2024 22:19]  Sir Digsalot: [Loyal, NKB]
[08/20/2024 22:19]  Sir Digsalot: Sir Digsalot
[08/20/2024 22:19]  Krogu: An Lor Xen
[08/20/2024 22:19]  Afsky: Afsky
[08/20/2024 22:19]  System: No Cap (NC) guild has reached prestige level 363.
[08/20/2024 22:19]  Krogu: An Lor Xen
[08/20/2024 22:19]  Krogu: An Lor Xen
[08/20/2024 22:19]  Krogu: An Lor Xen
[08/20/2024 22:19]  FastandCurious: FastandCurious (Young)
[08/20/2024 22:19]  Warner the Watch: *area taunt*
[08/20/2024 22:19]  Krogu: An Lor Xen
[08/20/2024 22:19]  Afsky: An Lor Xen
[08/20/2024 22:19]  Krogu: An Lor Xen
[08/20/2024 22:19]  Krogu: An Lor Xen
[08/20/2024 22:19]  Sir Digsalot: An Lor Xen
[08/20/2024 22:19]  Afsky: An Lor Xen
[08/20/2024 22:19]  Chimmy: Transmuter
[08/20/2024 22:19]  Chimmy: Chimmy
[08/20/2024 22:19]  Krogu: An Lor Xen
[08/20/2024 22:19]  Afsky: Afsky
[08/20/2024 22:19]  Sir Digsalot: An Lor Xen
[08/20/2024 22:19]  Krogu: An Lor Xen
[08/20/2024 22:19]  Krogu: An Lor Xen
[08/20/2024 22:19]  Sir Digsalot: An Lor Xen
[08/20/2024 22:19]  Krogu: An Lor Xen
[08/20/2024 22:19]  Sir Digsalot: An Lor Xen
[08/20/2024 22:19]  Afsky: An Lor Xen
[08/20/2024 22:19]  Krogu: An Lor Xen
[08/20/2024 22:19]  a mongbat: a mongbat
[08/20/2024 22:19]  Warner the Watch: *area taunt*
[08/20/2024 22:19]  Sir Digsalot: An Lor Xen
[08/20/2024 22:19]  Afsky: Afsky
[08/20/2024 22:19]  Krogu: An Lor Xen
[08/20/2024 22:19]  Sir Digsalot: [Loyal, NKB]
[08/20/2024 22:19]  Sir Digsalot: Sir Digsalot
[08/20/2024 22:19]  Krogu: An Lor Xen
[08/20/2024 22:19]  Krogu: An Lor Xen
[08/20/2024 22:19]  Krogu: An Lor Xen
[08/20/2024 22:19]  a primordial whelp: (summoned)
[08/20/2024 22:19]  a primordial whelp: a primordial whelp
[08/20/2024 22:19]  Romul: Romul (Young)
[08/20/2024 22:19]  Afsky: An Lor Xen
[08/20/2024 22:19]  Krogu: An Lor Xen
[08/20/2024 22:19]  Chimmy: Transmuter
[08/20/2024 22:19]  Chimmy: Chimmy
[08/20/2024 22:19]  Sanja: Sanja (Young)
[08/20/2024 22:19]  Llewbach: Llewbach (Young)
[08/20/2024 22:19]  Romul: Kal Xen
[08/20/2024 22:19]  Afsky: Afsky
[08/20/2024 22:19]  Krogu: An Lor Xen
[08/20/2024 22:20]  Krogu: An Lor Xen
[08/20/2024 22:20]  Sir Digsalot: An Lor Xen
[08/20/2024 22:20]  Slobbo Gobbo: Slobbo Gobbo (Young)
[08/20/2024 22:20]  D Bag: D Bag (Young)
[08/20/2024 22:20]  a monitor hatchling: (summoned)
[08/20/2024 22:20]  a monitor hatchling: a monitor hatchling
[08/20/2024 22:20]  Warner the Watch: *area taunt*
[08/20/2024 22:20]  Romul: Kal Xen
[08/20/2024 22:20]  Krogu: An Lor Xen
[08/20/2024 22:20]  Sir Digsalot: [Loyal, NKB]
[08/20/2024 22:20]  Sir Digsalot: Sir Digsalot
[08/20/2024 22:20]  Krogu: An Lor Xen
[08/20/2024 22:20]  You see: a mongbat corpse
[08/20/2024 22:20]  Krogu: An Lor Xen
[08/20/2024 22:20]  a flamehound: (summoned)
[08/20/2024 22:20]  a flamehound: a flamehound
[08/20/2024 22:20]  Afsky: An Lor Xen
[08/20/2024 22:20]  Krogu: An Lor Xen
[08/20/2024 22:20]  a wounded harpy: a wounded harpy
[08/20/2024 22:20]  Afsky: An Lor Xen
[08/20/2024 22:20]  Krogu: An Lor Xen
[08/20/2024 22:20]  Krogu: An Lor Xen
[08/20/2024 22:20]  Afsky: An Lor Xen
[08/20/2024 22:20]  Afsky: Afsky
[08/20/2024 22:20]  Krogu: An Lor Xen
[08/20/2024 22:20]  Afsky: Afsky
[08/20/2024 22:20]  Krogu: An Lor Xen
[08/20/2024 22:20]  Warner the Watch: *area taunt*
[08/20/2024 22:20]  Krogu: An Lor Xen
[08/20/2024 22:20]  Sir Digsalot: An Lor Xen
[08/20/2024 22:20]  Afsky: An Lor Xen
[08/20/2024 22:20]  Krogu: An Lor Xen
[08/20/2024 22:20]  Sir Digsalot: [Loyal, NKB]
[08/20/2024 22:20]  Sir Digsalot: Sir Digsalot
[08/20/2024 22:20]  Krogu: An Lor Xen
[08/20/2024 22:20]  Afsky: Afsky
[08/20/2024 22:20]  Krogu: An Lor Xen
[08/20/2024 22:20]  Chimmy: Transmuter
[08/20/2024 22:20]  Chimmy: Chimmy
[08/20/2024 22:20]  FastandCurious: FastandCurious (Young)
[08/20/2024 22:20]  Krogu: An Lor Xen
[08/20/2024 22:20]  System: Your campfire is now secure.
[08/20/2024 22:20]  Krogu: An Lor Xen
[08/20/2024 22:20]  Krogu: An Lor Xen
[08/20/2024 22:20]  Afsky: An Lor Xen
[08/20/2024 22:20]  Ashley Stabah: Ashley Stabah
[08/20/2024 22:20]  Krogu: An Lor Xen
[08/20/2024 22:20]  Warner the Watch: *area taunt*
[08/20/2024 22:20]  Afsky: Afsky
[08/20/2024 22:20]  Krogu: An Lor Xen
[08/20/2024 22:20]  You see: a mongbat corpse
[08/20/2024 22:20]  Krogu: An Lor Xen
[08/20/2024 22:20]  Sir Digsalot: An Lor Xen
[08/20/2024 22:20]  Thr ain: Thr ain (Young)
[08/20/2024 22:20]  Krogu: An Lor Xen
[08/20/2024 22:20]  Sir Digsalot: [Loyal, NKB]
[08/20/2024 22:20]  Sir Digsalot: Sir Digsalot
[08/20/2024 22:20]  Krogu: An Lor Xen
[08/20/2024 22:20]  Afsky: An Lor Xen
[08/20/2024 22:20]  UlfrikStabson: UlfrikStabson (Young)
[08/20/2024 22:20]  Chimmy: Transmuter
[08/20/2024 22:20]  Chimmy: Chimmy
[08/20/2024 22:20]  Afsky: Afsky
[08/20/2024 22:20]  Warner the Watch: *area taunt*
[08/20/2024 22:20]  Warner the Watch: If ever in need of aid, see thee the Knights Guild
[08/20/2024 22:21]  Ashley Stabah: Ashley Stabah
[08/20/2024 22:21]  Afsky: An Lor Xen
[08/20/2024 22:21]  You see: a mongbat corpse
[08/20/2024 22:21]  FastandCurious: FastandCurious (Young)
[08/20/2024 22:21]  Afsky: Afsky
[08/20/2024 22:21]  Sanja: Sanja (Young)
[08/20/2024 22:21]  Sir Digsalot: An Lor Xen
[08/20/2024 22:21]  Sir Digsalot: An Lor Xen
[08/20/2024 22:21]  System: ChivasRegal has registered an antiquity: Arachnid Figurine
[08/20/2024 22:21]  System: ChivasRegal has completed the achievement: Dungeon Antiquities (Basic).
[08/20/2024 22:21]  a mongbat: *looks violently ill*
[08/20/2024 22:21]  Sir Digsalot: An Lor Xen
[08/20/2024 22:21]  Warner the Watch: *area taunt*
[08/20/2024 22:21]  Afsky: An Lor Xen
[08/20/2024 22:21]  Sir Digsalot: [Loyal, NKB]
[08/20/2024 22:21]  Sir Digsalot: Sir Digsalot
[08/20/2024 22:21]  a mongbat: *looks violently ill*
[08/20/2024 22:21]  Afsky: Afsky
[08/20/2024 22:21]  You see: a mongbat corpse
[08/20/2024 22:21]  Afsky: An Lor Xen
[08/20/2024 22:21]  Afsky: Afsky
[08/20/2024 22:21]  Sir Digsalot: An Lor Xen
[08/20/2024 22:21]  Warner the Watch: *area taunt*
[08/20/2024 22:21]  Nancy.J.M: Nancy.J.M (Young)
[08/20/2024 22:21]  Sir Digsalot: [Loyal, NKB]
[08/20/2024 22:21]  Sir Digsalot: Sir Digsalot
[08/20/2024 22:21]  Urzula: An Lor Xen
[08/20/2024 22:21]  Slobbo Gobbo: Slobbo Gobbo (Young)
[08/20/2024 22:21]  Urzula: An Lor Xen
[08/20/2024 22:21]  Urzula: [The Tavern], [tT]
[08/20/2024 22:21]  Urzula: Urzula
[08/20/2024 22:21]  Afsky: An Lor Xen
[08/20/2024 22:21]  Urzula: An Lor Xen
[08/20/2024 22:21]  Urzula: [The Tavern], [tT]
[08/20/2024 22:21]  Urzula: Urzula
[08/20/2024 22:21]  Afsky: Afsky
[08/20/2024 22:21]  Ashley Stabah: Ashley Stabah
[08/20/2024 22:21]  Urzula: [The Tavern], [tT]
[08/20/2024 22:21]  Urzula: Urzula
[08/20/2024 22:21]  a giant rat: a giant rat
[08/20/2024 22:21]  UlfrikStabson: UlfrikStabson (Young)
[08/20/2024 22:21]  Warner the Watch: *area taunt*
[08/20/2024 22:21]  Afsky: An Lor Xen
[08/20/2024 22:21]  Sir Digsalot: An Lor Xen
[08/20/2024 22:21]  Fis: Fis
[08/20/2024 22:21]  You see: a wounded harpy corpse
[08/20/2024 22:21]  Afsky: An Lor Xen
[08/20/2024 22:21]  Afsky: Afsky
[08/20/2024 22:21]  Sir Digsalot: An Lor Xen
[08/20/2024 22:22]  Afsky: Afsky
[08/20/2024 22:22]  Sir Digsalot: An Lor Xen
[08/20/2024 22:22]  Sir Digsalot: [Loyal, NKB]
[08/20/2024 22:22]  Sir Digsalot: Sir Digsalot
[08/20/2024 22:22]  Afsky: An Lor Xen
[08/20/2024 22:22]  Warner the Watch: *area taunt*
[08/20/2024 22:22]  Afsky: An Lor Xen
[08/20/2024 22:22]  Fis: Vas An Ort
[08/20/2024 22:22]  Afsky: Afsky
[08/20/2024 22:22]  System: Ta Ta Tailor has completed the achievement: Enhanced (Basic).
[08/20/2024 22:22]  Fis: Vas An Ort
[08/20/2024 22:22]  Chimmy: Transmuter
[08/20/2024 22:22]  Chimmy: Chimmy
[08/20/2024 22:22]  Sir Digsalot: An Lor Xen
[08/20/2024 22:22]  Sir Digsalot: [Loyal, NKB]
[08/20/2024 22:22]  Sir Digsalot: Sir Digsalot
[08/20/2024 22:22]  Fis: Vas An Ort
[08/20/2024 22:22]  Afsky: An Lor Xen
[08/20/2024 22:22]  Afsky: Afsky
[08/20/2024 22:22]  Urzula: An Lor Xen
[08/20/2024 22:22]  Warner the Watch: *area taunt*
[08/20/2024 22:22]  System: Sostratus has completed the achievement: Enhanced (Basic).
[08/20/2024 22:22]  Urzula: An Lor Xen
[08/20/2024 22:22]  Urzula: [The Tavern], [tT]
[08/20/2024 22:22]  Urzula: Urzula
[08/20/2024 22:22]  Urzula: An Lor Xen
[08/20/2024 22:22]  Urzula: [The Tavern], [tT]
[08/20/2024 22:22]  Urzula: Urzula
[08/20/2024 22:22]  Afsky: An Lor Xen
[08/20/2024 22:22]  Urzula: An Lor Xen
[08/20/2024 22:22]  Urzula: [The Tavern], [tT]
[08/20/2024 22:22]  Urzula: Urzula
[08/20/2024 22:22]  Afsky: Afsky
[08/20/2024 22:22]  Urzula: An Lor Xen
[08/20/2024 22:22]  Urzula: [The Tavern], [tT]
[08/20/2024 22:22]  Urzula: Urzula
[08/20/2024 22:22]  Sir Digsalot: An Lor Xen
[08/20/2024 22:22]  Urzula: An Lor Xen
[08/20/2024 22:22]  UlfrikStabson: UlfrikStabson (Young)
[08/20/2024 22:22]  Urzula: [The Tavern], [tT]
[08/20/2024 22:22]  Urzula: Urzula
[08/20/2024 22:22]  a mongbat: a mongbat
[08/20/2024 22:22]  You see: a mongbat corpse
[08/20/2024 22:22]  FastandCurious: FastandCurious (Young)
[08/20/2024 22:22]  Sir Digsalot: An Lor Xen
[08/20/2024 22:22]  Urzula: [The Tavern], [tT]
[08/20/2024 22:22]  Urzula: Urzula
[08/20/2024 22:22]  Warner the Watch: *area taunt*
[08/20/2024 22:22]  Sir Digsalot: [Loyal, NKB]
[08/20/2024 22:22]  Sir Digsalot: Sir Digsalot
[08/20/2024 22:22]  Afsky: An Lor Xen
[08/20/2024 22:22]  Afsky: An Lor Xen
[08/20/2024 22:22]  Afsky: Afsky
[08/20/2024 22:22]  You see: a mongbat corpse
[08/20/2024 22:22]  System: Players cannot commit aggressive actions in that location.
[08/20/2024 22:23]  Ashley Stabah: Ashley Stabah
[08/20/2024 22:23]  Lea Tage: [Loyal, NKB]
[08/20/2024 22:23]  Lea Tage: Lady Lea Tage
[08/20/2024 22:23]  Afsky: An Lor Xen
[08/20/2024 22:23]  Warner the Watch: *area taunt*
[08/20/2024 22:23]  Sir Digsalot: An Lor Xen
[08/20/2024 22:23]  Lea Tage: [Loyal, NKB]
[08/20/2024 22:23]  Lea Tage: Lady Lea Tage
[08/20/2024 22:23]  Afsky: Afsky
[08/20/2024 22:23]  Sir Digsalot: [Loyal, NKB]
[08/20/2024 22:23]  Sir Digsalot: Sir Digsalot
[08/20/2024 22:23]  UlfrikStabson: UlfrikStabson (Young)
[08/20/2024 22:23]  Lea Tage: [Loyal, NKB]
[08/20/2024 22:23]  Lea Tage: Lady Lea Tage
[08/20/2024 22:23]  BukakkeSaka: Legendary Scribe
[08/20/2024 22:23]  BukakkeSaka: [The Tavern], [tT]
[08/20/2024 22:23]  BukakkeSaka: BukakkeSaka
[08/20/2024 22:23]  Chimmy: Transmuter
[08/20/2024 22:23]  Chimmy: Chimmy
[08/20/2024 22:23]  FastandCurious: FastandCurious (Young)
[08/20/2024 22:23]  Afsky: An Lor Xen
[08/20/2024 22:23]  Afsky: Afsky
[08/20/2024 22:23]  Urzula: An Lor Xen
[08/20/2024 22:23]  Urzula: An Lor Xen
[08/20/2024 22:23]  Slobbo Gobbo: Slobbo Gobbo (Young)
[08/20/2024 22:23]  Urzula: [The Tavern], [tT]
[08/20/2024 22:23]  Urzula: Urzula
[08/20/2024 22:23]  Warner the Watch: *area taunt*
[08/20/2024 22:23]  Urzula: An Lor Xen
[08/20/2024 22:23]  Urzula: [The Tavern], [tT]
[08/20/2024 22:23]  Urzula: Urzula
[08/20/2024 22:23]  a mongbat: a mongbat
[08/20/2024 22:23]  Urzula: An Lor Xen
[08/20/2024 22:23]  Urzula: [The Tavern], [tT]
[08/20/2024 22:23]  Urzula: Urzula
[08/20/2024 22:23]  Sir Digsalot: An Lor Xen
[08/20/2024 22:23]  Afsky: An Lor Xen
[08/20/2024 22:23]  Warner the Watch: The Knights Guild stands ever in the light of Virtue
[08/20/2024 22:23]  Urzula: An Lor Xen
[08/20/2024 22:23]  Urzula: [The Tavern], [tT]
[08/20/2024 22:23]  Urzula: Urzula
[08/20/2024 22:23]  You see: a mongbat corpse
[08/20/2024 22:23]  Sir Digsalot: [Loyal, NKB]
[08/20/2024 22:23]  Sir Digsalot: Sir Digsalot
[08/20/2024 22:23]  Afsky: Afsky
[08/20/2024 22:23]  Urzula: An Lor Xen
[08/20/2024 22:23]  Urzula: [The Tavern], [tT]
[08/20/2024 22:23]  Urzula: Urzula
[08/20/2024 22:23]  Ashley Stabah: Ashley Stabah
[08/20/2024 22:23]  Urzula: An Lor Xen
[08/20/2024 22:23]  Urzula: [The Tavern], [tT]
[08/20/2024 22:23]  Urzula: Urzula
[08/20/2024 22:23]  Urzula: An Lor Xen
[08/20/2024 22:23]  Urzula: [The Tavern], [tT]
[08/20/2024 22:23]  Urzula: Urzula
[08/20/2024 22:23]  Urzula: An Lor Xen
[08/20/2024 22:23]  Urzula: [The Tavern], [tT]
[08/20/2024 22:23]  Urzula: Urzula
[08/20/2024 22:23]  Warner the Watch: *area taunt*
[08/20/2024 22:23]  Afsky: An Lor Xen
[08/20/2024 22:23]  Urzula: An Lor Xen
[08/20/2024 22:23]  Urzula: [The Tavern], [tT]
[08/20/2024 22:23]  Urzula: Urzula
[08/20/2024 22:23]  Afsky: Afsky
[08/20/2024 22:23]  Urzula: An Lor Xen
[08/20/2024 22:23]  Urzula: [The Tavern], [tT]
[08/20/2024 22:23]  Urzula: Urzula
[08/20/2024 22:23]  FastandCurious: FastandCurious (Young)
[08/20/2024 22:23]  Urzula: An Lor Xen
[08/20/2024 22:23]  Sir Digsalot: An Lor Xen
[08/20/2024 22:23]  Urzula: [The Tavern], [tT]
[08/20/2024 22:23]  Urzula: Urzula
[08/20/2024 22:23]  Urzula: An Lor Xen
[08/20/2024 22:23]  Urzula: [The Tavern], [tT]
[08/20/2024 22:23]  Urzula: Urzula
[08/20/2024 22:23]  UlfrikStabson: UlfrikStabson (Young)
[08/20/2024 22:23]  Sir Digsalot: An Lor Xen
[08/20/2024 22:23]  Afsky: An Lor Xen
[08/20/2024 22:23]  Urzula: [The Tavern], [tT]
[08/20/2024 22:23]  Urzula: Urzula
[08/20/2024 22:23]  Krogu: Krogu (Young)
[08/20/2024 22:23]  Sir Digsalot: An Lor Xen
[08/20/2024 22:23]  System: Geostigma Synar has completed the achievement: Scribe (Basic).
[08/20/2024 22:23]  Afsky: Afsky
[08/20/2024 22:24]  Warner the Watch: *area taunt*
[08/20/2024 22:24]  Sir Digsalot: An Lor Xen
[08/20/2024 22:24]  Sir Digsalot: [Loyal, NKB]
[08/20/2024 22:24]  Sir Digsalot: Sir Digsalot
[08/20/2024 22:24]  Afsky: An Lor Xen
[08/20/2024 22:24]  Afsky: Afsky
[08/20/2024 22:24]  Krogu: An Lor Xen
[08/20/2024 22:24]  System: Erik' has completed the achievement: Guardian of The Mausoleum (Basic).
[08/20/2024 22:24]  Krogu: An Lor Xen
[08/20/2024 22:24]  Thr ain: Thr ain (Young)
[08/20/2024 22:24]  Krogu: An Lor Xen
[08/20/2024 22:24]  Sir Digsalot: An Lor Xen
[08/20/2024 22:24]  Krogu: An Lor Xen
[08/20/2024 22:24]  Warner the Watch: *area taunt*
[08/20/2024 22:24]  Sir Digsalot: [Loyal, NKB]
[08/20/2024 22:24]  Sir Digsalot: Sir Digsalot
[08/20/2024 22:24]  Krogu: An Lor Xen
[08/20/2024 22:24]  Krogu: Krogu (Young)
[08/20/2024 22:24]  Afsky: An Lor Xen
[08/20/2024 22:24]  a mongbat: a mongbat
[08/20/2024 22:24]  Chimmy: Transmuter
[08/20/2024 22:24]  Chimmy: Chimmy
[08/20/2024 22:24]  Krogu: An Lor Xen
[08/20/2024 22:24]  Afsky: Afsky
[08/20/2024 22:24]  Krogu: An Lor Xen
[08/20/2024 22:24]  oppla: oppla (Young)
[08/20/2024 22:24]  Krogu: An Lor Xen
[08/20/2024 22:24]  Krogu: Krogu (Young)
[08/20/2024 22:24]  Krogu: An Lor Xen
[08/20/2024 22:24]  Krogu: Krogu (Young)
[08/20/2024 22:24]  Krogu: An Lor Xen
[08/20/2024 22:24]  Afsky: An Lor Xen
[08/20/2024 22:24]  Urzula: An Lor Xen
[08/20/2024 22:24]  Krogu: An Lor Xen
[08/20/2024 22:24]  Afsky: Afsky
[08/20/2024 22:24]  Warner the Watch: *area taunt*
[08/20/2024 22:24]  Krogu: An Lor Xen
[08/20/2024 22:24]  Sir Digsalot: An Lor Xen
[08/20/2024 22:24]  Krogu: An Lor Xen
[08/20/2024 22:24]  Krogu: Krogu (Young)
[08/20/2024 22:24]  Ashley Stabah: Ashley Stabah
[08/20/2024 22:24]  Sir Digsalot: [Loyal, NKB]
[08/20/2024 22:24]  Sir Digsalot: Sir Digsalot
[08/20/2024 22:24]  Krogu: Krogu (Young)
[08/20/2024 22:24]  Afsky: An Lor Xen
[08/20/2024 22:24]  Afsky: Afsky
[08/20/2024 22:24]  Warner the Watch: *area taunt*
[08/20/2024 22:24]  Chimmy: Transmuter
[08/20/2024 22:24]  Chimmy: Chimmy
[08/20/2024 22:25]  Afsky: An Lor Xen
[08/20/2024 22:25]  Sir Digsalot: An Lor Xen
[08/20/2024 22:25]  Afsky: Afsky
[08/20/2024 22:25]  Ashley Stabah: Ashley Stabah
[08/20/2024 22:25]  Urzula: [The Tavern], [tT]
[08/20/2024 22:25]  Urzula: Urzula
[08/20/2024 22:25]  Sir Digsalot: [Loyal, NKB]
[08/20/2024 22:25]  Sir Digsalot: Sir Digsalot
[08/20/2024 22:25]  oppla: Por Ort Grav
[08/20/2024 22:25]  Sanja: Sanja (Young)
[08/20/2024 22:25]  oppla: Por Ort Grav
[08/20/2024 22:25]  a zombie: a zombie
[08/20/2024 22:25]  Krogu: Por Corp Wis
[08/20/2024 22:25]  Afsky: An Lor Xen
[08/20/2024 22:25]  oppla: Por Ort Grav
[08/20/2024 22:25]  Warner the Watch: *area taunt*
[08/20/2024 22:25]  Fis: Vas An Ort
[08/20/2024 22:25]  Afsky: Afsky
[08/20/2024 22:25]  oppla: Por Ort Grav
[08/20/2024 22:25]  FastandCurious: FastandCurious (Young)
[08/20/2024 22:25]  oppla: Por Ort Grav
[08/20/2024 22:25]  Fis: Vas An Ort
[08/20/2024 22:25]  You see: a mongbat corpse
[08/20/2024 22:25]  oppla: Por Ort Grav
[08/20/2024 22:25]  Sir Digsalot: An Lor Xen
[08/20/2024 22:25]  oppla: Por Ort Grav
[08/20/2024 22:25]  Fis: Vas An Ort
[08/20/2024 22:25]  Afsky: An Lor Xen
[08/20/2024 22:25]  Sir Digsalot: An Lor Xen
[08/20/2024 22:25]  Afsky: Afsky
[08/20/2024 22:25]  oppla: Por Ort Grav
[08/20/2024 22:25]  Fis: Vas An Ort
[08/20/2024 22:25]  Sir Digsalot: An Lor Xen
[08/20/2024 22:25]  oppla: In Vas Mani
[08/20/2024 22:25]  a mongbat: a mongbat
[08/20/2024 22:25]  Warner the Watch: *area taunt*
[08/20/2024 22:25]  oppla: In Vas Mani
[08/20/2024 22:25]  Sir Digsalot: An Lor Xen
[08/20/2024 22:25]  Fis: Vas An Ort
[08/20/2024 22:25]  oppla: In Vas Mani
[08/20/2024 22:25]  Ashley Stabah: Ashley Stabah
[08/20/2024 22:25]  Sir Digsalot: An Lor Xen
[08/20/2024 22:25]  System: Your campfire is now secure.
[08/20/2024 22:25]  Afsky: An Lor Xen
[08/20/2024 22:25]  oppla: Por Ort Grav
[08/20/2024 22:25]  Sanja: Sanja (Young)
[08/20/2024 22:25]  FastandCurious: FastandCurious (Young)
[08/20/2024 22:25]  Fis: Vas An Ort
[08/20/2024 22:25]  Sir Digsalot: An Lor Xen
[08/20/2024 22:25]  Afsky: An Lor Xen
[08/20/2024 22:25]  oppla: Por Ort Grav
[08/20/2024 22:25]  Afsky: Afsky
[08/20/2024 22:25]  Sir Digsalot: [Loyal, NKB]
[08/20/2024 22:25]  Sir Digsalot: Sir Digsalot
[08/20/2024 22:25]  a zombie: a zombie
[08/20/2024 22:25]  a zombie: a zombie
[08/20/2024 22:25]  oppla: Por Ort Grav
[08/20/2024 22:25]  Afsky: An Lor Xen
[08/20/2024 22:25]  You see: a mongbat corpse
[08/20/2024 22:25]  System: Players cannot commit aggressive actions in that location.
[08/20/2024 22:25]  oppla: Por Ort Grav
[08/20/2024 22:25]  Afsky: An Lor Xen
[08/20/2024 22:25]  Warner the Watch: *area taunt*
[08/20/2024 22:25]  Afsky: An Lor Xen
[08/20/2024 22:25]  Sir Digsalot: An Lor Xen
[08/20/2024 22:25]  Afsky: Afsky
[08/20/2024 22:25]  Sir Digsalot: An Lor Xen
[08/20/2024 22:25]  Afsky: An Lor Xen
[08/20/2024 22:25]  Ashley Stabah: Ashley Stabah
[08/20/2024 22:26]  Sir Digsalot: An Lor Xen
[08/20/2024 22:26]  oppla: Por Ort Grav
[08/20/2024 22:26]  Warner the Watch: Fear not! The Knights Guild shalt protect thee whilst thou trains!
[08/20/2024 22:26]  Sir Digsalot: [Loyal, NKB]
[08/20/2024 22:26]  Sir Digsalot: Sir Digsalot
[08/20/2024 22:26]  UlfrikStabson: UlfrikStabson (Young)
[08/20/2024 22:26]  Afsky: Afsky
[08/20/2024 22:26]  You see: a mongbat corpse
[08/20/2024 22:26]  Nancy.J.M: Nancy.J.M (Young)
[08/20/2024 22:26]  a mongbat: a mongbat
[08/20/2024 22:26]  Krogu: An Lor Xen
[08/20/2024 22:26]  Warner the Watch: *area taunt*
[08/20/2024 22:26]  Krogu: An Lor Xen
[08/20/2024 22:26]  oppla: Por Ort Grav
[08/20/2024 22:26]  Krogu: An Lor Xen
[08/20/2024 22:26]  Afsky: An Lor Xen
[08/20/2024 22:26]  Krogu: An Lor Xen
[08/20/2024 22:26]  System: Holy symbols remaining: 5/6
[08/20/2024 22:26]  Afsky: Afsky
[08/20/2024 22:26]  Krogu: An Lor Xen
[08/20/2024 22:26]  Krogu: Krogu (Young)
[08/20/2024 22:26]  Ailiin: -9
[08/20/2024 22:26]  System: Macing skillgain: 13.354%
[08/20/2024 22:26]  System: Tactics skillgain: 16.693%
[08/20/2024 22:26]  System: Anatomy skillgain: 20.034%
[08/20/2024 22:26]  System: ArmsLore skillgain: 20.034%
[08/20/2024 22:26]  System: Focus skillgain: 16.693%
[08/20/2024 22:26]  System: Chivalry skillgain: 13.354%
[08/20/2024 22:26]  System: You smash the unprotected target, dealing significant damage!
[08/20/2024 22:26]  a mongbat: -63
[08/20/2024 22:26]  Sir Digsalot: An Lor Xen
[08/20/2024 22:26]  Krogu: An Lor Xen
[08/20/2024 22:26]  System: Max holy symbols earned (6/6)
[08/20/2024 22:26]  Sir Digsalot: [Loyal, NKB]
[08/20/2024 22:26]  Sir Digsalot: Sir Digsalot
[08/20/2024 22:26]  Krogu: An Lor Xen
[08/20/2024 22:26]  System: You have gained a little fame.
[08/20/2024 22:26]  System: You have gained a little karma.
[08/20/2024 22:26]  You see: a mongbat corpse
[08/20/2024 22:26]  System: Players cannot commit aggressive actions in that location.
[08/20/2024 22:26]  oppla: Por Ort Grav
[08/20/2024 22:26]  Krogu: An Lor Xen
[08/20/2024 22:26]  Afsky: An Lor Xen
[08/20/2024 22:26]  Krogu: An Lor Xen
[08/20/2024 22:26]  Warner the Watch: *area taunt*
[08/20/2024 22:26]  oppla: Por Ort Grav
[08/20/2024 22:26]  Afsky: Afsky
[08/20/2024 22:26]  You see: a mongbat corpse
[08/20/2024 22:26]  Krogu: An Lor Xen
[08/20/2024 22:26]  Krogu: An Lor Xen
[08/20/2024 22:26]  Krogu: An Lor Xen
[08/20/2024 22:26]  Krogu: Krogu (Young)
[08/20/2024 22:26]  oppla: In Vas Mani
[08/20/2024 22:26]  Chimmy: Transmuter
[08/20/2024 22:26]  Chimmy: Chimmy
[08/20/2024 22:26]  Krogu: An Lor Xen
[08/20/2024 22:26]  Afsky: An Lor Xen
[08/20/2024 22:26]  Krogu: An Lor Xen
[08/20/2024 22:26]  Sir Digsalot: An Lor Xen
[08/20/2024 22:26]  Krogu: An Lor Xen
[08/20/2024 22:26]  Krogu: Krogu (Young)
[08/20/2024 22:26]  Afsky: An Lor Xen
[08/20/2024 22:26]  Ashley Stabah: Ashley Stabah
[08/20/2024 22:26]  Sir Digsalot: [Loyal, NKB]
[08/20/2024 22:26]  Sir Digsalot: Sir Digsalot
[08/20/2024 22:26]  Krogu: An Lor Xen
[08/20/2024 22:26]  Krogu: Krogu (Young)
[08/20/2024 22:26]  Afsky: Afsky
[08/20/2024 22:26]  oppla: Por Ort Grav
[08/20/2024 22:26]  Warner the Watch: *area taunt*
[08/20/2024 22:26]  FastandCurious: FastandCurious (Young)
[08/20/2024 22:26]  System: Your food satisfaction effect has expired.
[08/20/2024 22:26]  Krogu: Krogu (Young)
[08/20/2024 22:26]  oppla: Por Ort Grav
[08/20/2024 22:26]  a giant bat: a giant bat
[08/20/2024 22:26]  Afsky: An Lor Xen
[08/20/2024 22:26]  Afsky: Afsky
[08/20/2024 22:26]  Mrcrowelll: Mrcrowelll (Young)
[08/20/2024 22:27]  Sir Digsalot: An Lor Xen
[08/20/2024 22:27]  Warner the Watch: *area taunt*
[08/20/2024 22:27]  Afsky: An Lor Xen
[08/20/2024 22:27]  UlfrikStabson: UlfrikStabson (Young)
[08/20/2024 22:27]  Sir Digsalot: An Lor Xen
[08/20/2024 22:27]  Afsky: Afsky
[08/20/2024 22:27]  System: Your campfire is now secure.
[08/20/2024 22:27]  oppla: Por Ort Grav
[08/20/2024 22:27]  Chimmy: Transmuter
[08/20/2024 22:27]  Chimmy: Chimmy
[08/20/2024 22:27]  a mongbat: a mongbat
[08/20/2024 22:27]  Sir Digsalot: An Lor Xen
[08/20/2024 22:27]  Sir Digsalot: [Loyal, NKB]
[08/20/2024 22:27]  Sir Digsalot: Sir Digsalot
[08/20/2024 22:27]  Slobbo Gobbo: Slobbo Gobbo (Young)
[08/20/2024 22:27]  Afsky: An Lor Xen
[08/20/2024 22:27]  FastandCurious: FastandCurious (Young)
[08/20/2024 22:27]  oppla: Por Ort Grav
[08/20/2024 22:27]  System: Sostratus has completed the achievement: Alchemist (Epic).
[08/20/2024 22:27]  Afsky: Afsky
[08/20/2024 22:27]  a mongbat: a mongbat
[08/20/2024 22:27]  Warner the Watch: *area taunt*
[08/20/2024 22:27]  You see: a mongbat corpse
[08/20/2024 22:27]  System: Players cannot commit aggressive actions in that location.
[08/20/2024 22:27]  Sir Digsalot: An Lor Xen
[08/20/2024 22:27]  Afsky: An Lor Xen
[08/20/2024 22:27]  Sir Digsalot: [Loyal, NKB]
[08/20/2024 22:27]  Sir Digsalot: Sir Digsalot
[08/20/2024 22:27]  oppla: Por Ort Grav
[08/20/2024 22:27]  Afsky: Afsky
[08/20/2024 22:27]  UlfrikStabson: UlfrikStabson (Young)
[08/20/2024 22:27]  Warner the Watch: *area taunt*
[08/20/2024 22:27]  Chimmy: Transmuter
[08/20/2024 22:27]  Chimmy: Chimmy
[08/20/2024 22:27]  oppla: Por Ort Grav
[08/20/2024 22:27]  Afsky: An Lor Xen
[08/20/2024 22:27]  Afsky: Afsky
[08/20/2024 22:27]  Sanja: Sanja (Young)
[08/20/2024 22:27]  Ashley Stabah: Ashley Stabah
[08/20/2024 22:27]  Sir Digsalot: An Lor Xen
[08/20/2024 22:27]  System: Alawi Shad has completed the achievement: Engineer (Epic).
[08/20/2024 22:27]  Sir Digsalot: An Lor Xen
[08/20/2024 22:27]  You see: a mongbat corpse
[08/20/2024 22:27]  Krogu: An Lor Xen
[08/20/2024 22:27]  Afsky: An Lor Xen
[08/20/2024 22:27]  Sir Digsalot: [Loyal, NKB]
[08/20/2024 22:27]  Sir Digsalot: Sir Digsalot
[08/20/2024 22:27]  Krogu: An Lor Xen
[08/20/2024 22:27]  Krogu: Krogu (Young)
[08/20/2024 22:27]  Warner the Watch: *area taunt*
[08/20/2024 22:27]  Afsky: Afsky
[08/20/2024 22:28]  Krogu: An Lor Xen
[08/20/2024 22:28]  You see: a mongbat corpse
[08/20/2024 22:28]  Krogu: An Lor Xen
[08/20/2024 22:28]  oppla: Por Ort Grav
[08/20/2024 22:28]  a scorpion: a scorpion
[08/20/2024 22:28]  Krogu: An Lor Xen
[08/20/2024 22:28]  Krogu: Krogu (Young)
[08/20/2024 22:28]  oppla: Por Ort Grav
[08/20/2024 22:28]  Krogu: An Lor Xen
[08/20/2024 22:28]  Krogu: Krogu (Young)
[08/20/2024 22:28]  oppla: In Vas Mani
[08/20/2024 22:28]  Krogu: An Lor Xen
[08/20/2024 22:28]  Afsky: An Lor Xen
[08/20/2024 22:28]  Krogu: Krogu (Young)
[08/20/2024 22:28]  oppla: Por Ort Grav
[08/20/2024 22:28]  Afsky: Afsky
[08/20/2024 22:28]  Krogu: Krogu (Young)
[08/20/2024 22:28]  Sir Digsalot: An Lor Xen
[08/20/2024 22:28]  Warner the Watch: *area taunt*
[08/20/2024 22:28]  Sir Digsalot: An Lor Xen
[08/20/2024 22:28]  Sir Digsalot: [Loyal, NKB]
[08/20/2024 22:28]  Sir Digsalot: Sir Digsalot
[08/20/2024 22:28]  oppla: Por Ort Grav
[08/20/2024 22:28]  Afsky: An Lor Xen
[08/20/2024 22:28]  Afsky: Afsky
[08/20/2024 22:28]  UlfrikStabson: UlfrikStabson (Young)
[08/20/2024 22:28]  reneee: reneee (Young)
[08/20/2024 22:28]  Sanja: Sanja (Young)
[08/20/2024 22:28]  Slobbo Gobbo: Slobbo Gobbo (Young)
[08/20/2024 22:28]  Warner the Watch: The Knights Guild shalt always stand for the good and shalt Uphold the Virtues!
[08/20/2024 22:28]  Warner the Watch: *area taunt*
[08/20/2024 22:28]  Afsky: An Lor Xen
[08/20/2024 22:28]  a zombie: a zombie
[08/20/2024 22:28]  FastandCurious: FastandCurious (Young)
[08/20/2024 22:28]  You see: a mongbat corpse
[08/20/2024 22:28]  Sir Digsalot: An Lor Xen
[08/20/2024 22:28]  Afsky: An Lor Xen
[08/20/2024 22:28]  Sir Digsalot: [Loyal, NKB]
[08/20/2024 22:28]  Sir Digsalot: Sir Digsalot
[08/20/2024 22:28]  Afsky: An Lor Xen
[08/20/2024 22:28]  Afsky: Afsky
[08/20/2024 22:28]  Mrcrowelll: Mrcrowelll (Young)
[08/20/2024 22:28]  Urzula: Kal Vas Xen Flam
[08/20/2024 22:28]  Afsky: An Lor Xen
[08/20/2024 22:28]  Warner the Watch: *area taunt*
[08/20/2024 22:28]  Afsky: Afsky
[08/20/2024 22:28]  Ashley Stabah: Ashley Stabah
[08/20/2024 22:28]  reneee: reneee (Young)
[08/20/2024 22:28]  FastandCurious: FastandCurious (Young)
[08/20/2024 22:29]  Sir Digsalot: An Lor Xen
[08/20/2024 22:29]  oppla: Por Ort Grav
[08/20/2024 22:29]  System: Febis has completed the achievement: Trawler (Advanced).
[08/20/2024 22:29]  Sir Digsalot: An Lor Xen
[08/20/2024 22:29]  Afsky: An Lor Xen
[08/20/2024 22:29]  oppla: Por Ort Grav
[08/20/2024 22:29]  Afsky: Afsky
[08/20/2024 22:29]  Sir Digsalot: An Lor Xen
[08/20/2024 22:29]  oppla: Por Ort Grav
[08/20/2024 22:29]  Sir Digsalot: [Loyal, NKB]
[08/20/2024 22:29]  Sir Digsalot: Sir Digsalot
[08/20/2024 22:29]  Chimmy: Transmuter
[08/20/2024 22:29]  Chimmy: Chimmy
[08/20/2024 22:29]  Warner the Watch: *area taunt*
[08/20/2024 22:29]  oppla: Por Ort Grav
[08/20/2024 22:29]  a mongbat: a mongbat
[08/20/2024 22:29]  UlfrikStabson: UlfrikStabson (Young)
[08/20/2024 22:29]  Afsky: An Lor Xen
[08/20/2024 22:29]  oppla: In Vas Mani
[08/20/2024 22:29]  Afsky: Afsky
[08/20/2024 22:29]  System: Landmine Lieutnt has completed the achievement: Cartographer (Advanced).
[08/20/2024 22:29]  a giant bat: a giant bat
[08/20/2024 22:29]  Fis: Fis
[08/20/2024 22:29]  Sir Digsalot: An Lor Xen
[08/20/2024 22:29]  oppla: Por Ort Grav
[08/20/2024 22:29]  Sir Digsalot: [Loyal, NKB]
[08/20/2024 22:29]  Sir Digsalot: Sir Digsalot
[08/20/2024 22:29]  a giant bat: a giant bat
[08/20/2024 22:29]  Ashley Stabah: Ashley Stabah
[08/20/2024 22:29]  Krogu: An Lor Xen
[08/20/2024 22:29]  Warner the Watch: *area taunt*
[08/20/2024 22:29]  You see: a mongbat corpse
[08/20/2024 22:29]  System: Players cannot commit aggressive actions in that location.
[08/20/2024 22:29]  Afsky: An Lor Xen
[08/20/2024 22:29]  Krogu: An Lor Xen
[08/20/2024 22:29]  Krogu: Krogu (Young)
[08/20/2024 22:29]  Afsky: Afsky
[08/20/2024 22:29]  Krogu: An Lor Xen
[08/20/2024 22:29]  Krogu: An Lor Xen
[08/20/2024 22:29]  Krogu: An Lor Xen
[08/20/2024 22:29]  Krogu: Krogu (Young)
[08/20/2024 22:29]  Krogu: An Lor Xen
[08/20/2024 22:29]  Afsky: An Lor Xen
[08/20/2024 22:29]  Krogu: An Lor Xen
[08/20/2024 22:29]  Chimmy: Transmuter
[08/20/2024 22:29]  Chimmy: Chimmy
[08/20/2024 22:29]  Afsky: Afsky
[08/20/2024 22:29]  Krogu: An Lor Xen
[08/20/2024 22:29]  oppla: Por Ort Grav
[08/20/2024 22:29]  Sir Digsalot: An Lor Xen
[08/20/2024 22:29]  Krogu: An Lor Xen
[08/20/2024 22:29]  Krogu: Krogu (Young)
[08/20/2024 22:29]  Warner the Watch: *area taunt*
[08/20/2024 22:29]  Sir Digsalot: [Loyal, NKB]
[08/20/2024 22:29]  Sir Digsalot: Sir Digsalot
[08/20/2024 22:29]  Ashley Stabah: Ashley Stabah
[08/20/2024 22:29]  Krogu: An Lor Xen
[08/20/2024 22:29]  Krogu: Krogu (Young)
[08/20/2024 22:29]  oppla: Por Ort Grav
[08/20/2024 22:29]  Krogu: An Lor Xen
[08/20/2024 22:29]  FastandCurious: FastandCurious (Young)
[08/20/2024 22:29]  Krogu: Krogu (Young)
[08/20/2024 22:29]  Krogu: An Lor Xen
[08/20/2024 22:29]  Afsky: An Lor Xen
[08/20/2024 22:29]  Krogu: An Lor Xen
[08/20/2024 22:29]  Krogu: Krogu (Young)
[08/20/2024 22:29]  Afsky: Afsky
[08/20/2024 22:30]  Krogu: An Lor Xen
[08/20/2024 22:30]  oppla: An Lor Xen
[08/20/2024 22:30]  Krogu: An Lor Xen
[08/20/2024 22:30]  Krogu: An Lor Xen
[08/20/2024 22:30]  oppla: An Lor Xen
[08/20/2024 22:30]  Warner the Watch: *area taunt*
[08/20/2024 22:30]  Krogu: An Lor Xen
[08/20/2024 22:30]  Krogu: Krogu (Young)
[08/20/2024 22:30]  UlfrikStabson: UlfrikStabson (Young)
[08/20/2024 22:30]  a mongbat: a mongbat
[08/20/2024 22:30]  Afsky: An Lor Xen
[08/20/2024 22:30]  oppla: An Lor Xen
[08/20/2024 22:30]  Sir Digsalot: An Lor Xen
[08/20/2024 22:30]  Krogu: An Lor Xen
[08/20/2024 22:30]  Afsky: Afsky
[08/20/2024 22:30]  Krogu: An Lor Xen
[08/20/2024 22:30]  Sir Digsalot: [Loyal, NKB]
[08/20/2024 22:30]  Sir Digsalot: Sir Digsalot
[08/20/2024 22:30]  Krogu: Krogu (Young)
[08/20/2024 22:30]  oppla: An Lor Xen
[08/20/2024 22:30]  Sanja: Sanja (Young)
[08/20/2024 22:30]  Krogu: An Lor Xen
[08/20/2024 22:30]  Krogu: Krogu (Young)
[08/20/2024 22:30]  a mongbat: a mongbat
[08/20/2024 22:30]  FastandCurious: FastandCurious (Young)
[08/20/2024 22:30]  oppla: An Lor Xen
[08/20/2024 22:30]  Krogu: An Lor Xen
[08/20/2024 22:30]  Krogu: Krogu (Young)
[08/20/2024 22:30]  oppla: An Lor Xen
[08/20/2024 22:30]  You see: a mongbat corpse
[08/20/2024 22:30]  Afsky: An Lor Xen
[08/20/2024 22:30]  Afsky: Afsky
[08/20/2024 22:30]  oppla: An Lor Xen
[08/20/2024 22:30]  Warner the Watch: *area taunt*
[08/20/2024 22:30]  Sanja: Sanja (Young)
[08/20/2024 22:30]  oppla: An Lor Xen
[08/20/2024 22:30]  Chimmy: Transmuter
[08/20/2024 22:30]  Chimmy: Chimmy
[08/20/2024 22:30]  oppla: An Lor Xen
[08/20/2024 22:30]  Sir Digsalot: An Lor Xen
[08/20/2024 22:30]  Elminster Aummar: [Nordico, BRvk]
[08/20/2024 22:30]  Elminster Aummar: Elminster Aummar
[08/20/2024 22:30]  Afsky: An Lor Xen
[08/20/2024 22:30]  oppla: An Lor Xen
[08/20/2024 22:30]  Sir Digsalot: [Loyal, NKB]
[08/20/2024 22:30]  Sir Digsalot: Sir Digsalot
[08/20/2024 22:30]  System: Your campfire is now secure.
[08/20/2024 22:30]  Afsky: Afsky
[08/20/2024 22:30]  FastandCurious: FastandCurious (Young)
[08/20/2024 22:30]  oppla: An Lor Xen
[08/20/2024 22:30]  UlfrikStabson: UlfrikStabson (Young)
[08/20/2024 22:30]  Ursa Minor: Triggered
[08/20/2024 22:30]  Ursa Minor: [Scholar, CtS]
[08/20/2024 22:30]  Ursa Minor: Ursa Minor
[08/20/2024 22:30]  oppla: An Lor Xen
[08/20/2024 22:30]  Warner the Watch: *area taunt*
[08/20/2024 22:30]  Afsky: An Lor Xen
[08/20/2024 22:30]  You see: a mongbat corpse
[08/20/2024 22:30]  Afsky: Afsky
[08/20/2024 22:30]  Sir Digsalot: An Lor Xen
[08/20/2024 22:30]  Mrcrowelll: Mrcrowelll (Young)
[08/20/2024 22:30]  Ashley Stabah: Ashley Stabah
[08/20/2024 22:30]  Sir Digsalot: An Lor Xen
[08/20/2024 22:31]  Sir Digsalot: An Lor Xen
[08/20/2024 22:31]  You see: a mongbat corpse
[08/20/2024 22:31]  Afsky: An Lor Xen
[08/20/2024 22:31]  Warner the Watch: *area taunt*
[08/20/2024 22:31]  Sir Digsalot: [Loyal, NKB]
[08/20/2024 22:31]  Sir Digsalot: Sir Digsalot
[08/20/2024 22:31]  Afsky: Afsky
[08/20/2024 22:31]  Warner the Watch: If ever in need of aid, see thee the Knights Guild
[08/20/2024 22:31]  Kolsch: Kolsch (Young)
[08/20/2024 22:31]  reneee: reneee (Young)
[08/20/2024 22:31]  UlfrikStabson: UlfrikStabson (Young)
[08/20/2024 22:31]  Afsky: An Lor Xen
[08/20/2024 22:31]  Afsky: Afsky
[08/20/2024 22:31]  Sir Digsalot: An Lor Xen
[08/20/2024 22:31]  Warner the Watch: *area taunt*
[08/20/2024 22:31]  Sir Digsalot: [Loyal, NKB]
[08/20/2024 22:31]  Sir Digsalot: Sir Digsalot
[08/20/2024 22:31]  System: The world will save in 15 seconds.
[08/20/2024 22:31]  You see: a mongbat corpse
[08/20/2024 22:31]  Afsky: An Lor Xen
[08/20/2024 22:31]  Afsky: Afsky
[08/20/2024 22:31]  Ashley Stabah: Ashley Stabah
[08/20/2024 22:31]  oppla: An Lor Xen
[08/20/2024 22:31]  oppla: An Lor Xen
[08/20/2024 22:31]  a mongbat: a mongbat
[08/20/2024 22:31]  oppla: An Lor Xen
[08/20/2024 22:31]  Nancy.J.M: Nancy.J.M (Young)
[08/20/2024 22:31]  Warner the Watch: *area taunt*
[08/20/2024 22:31]  Afsky: An Lor Xen
[08/20/2024 22:31]  Krogu: An Lor Xen
[08/20/2024 22:31]  Sir Digsalot: An Lor Xen
[08/20/2024 22:31]  System: The world is saving, please wait.
[08/20/2024 22:31]  System: World save complete. The entire process took 2.5 seconds.
[08/20/2024 22:31]  oppla: An Lor Xen
[08/20/2024 22:31]  Afsky: Afsky
[08/20/2024 22:31]  Krogu: An Lor Xen
[08/20/2024 22:31]  Krogu: Krogu (Young)
[08/20/2024 22:31]  Sir Digsalot: [Loyal, NKB]
[08/20/2024 22:31]  Sir Digsalot: Sir Digsalot
[08/20/2024 22:31]  Krogu: An Lor Xen
[08/20/2024 22:31]  Krogu: Krogu (Young)
[08/20/2024 22:31]  oppla: An Lor Xen
[08/20/2024 22:31]  Krogu: An Lor Xen
[08/20/2024 22:31]  oppla: An Lor Xen
[08/20/2024 22:31]  oppla: oppla (Young)
[08/20/2024 22:31]  Krogu: An Lor Xen
[08/20/2024 22:31]  You see: a mongbat corpse
[08/20/2024 22:31]  System: Players cannot commit aggressive actions in that location.
[08/20/2024 22:31]  Krogu: An Lor Xen
[08/20/2024 22:31]  Afsky: An Lor Xen
[08/20/2024 22:31]  oppla: An Lor Xen
[08/20/2024 22:31]  Krogu: An Lor Xen
[08/20/2024 22:31]  Afsky: Afsky
[08/20/2024 22:31]  Krogu: Krogu (Young)
[08/20/2024 22:31]  Warner the Watch: *area taunt*
[08/20/2024 22:31]  oppla: An Lor Xen
[08/20/2024 22:31]  Krogu: An Lor Xen
[08/20/2024 22:31]  Krogu: Krogu (Young)
[08/20/2024 22:32]  Krogu: An Lor Xen
[08/20/2024 22:32]  oppla: An Lor Xen
[08/20/2024 22:32]  Krogu: An Lor Xen
[08/20/2024 22:32]  Krogu: Krogu (Young)
[08/20/2024 22:32]  oppla: An Lor Xen
[08/20/2024 22:32]  Sir Digsalot: An Lor Xen
[08/20/2024 22:32]  Krogu: An Lor Xen
[08/20/2024 22:32]  Afsky: An Lor Xen
[08/20/2024 22:32]  Sir Digsalot: [Loyal, NKB]
[08/20/2024 22:32]  Sir Digsalot: Sir Digsalot
[08/20/2024 22:32]  Krogu: An Lor Xen
[08/20/2024 22:32]  oppla: An Lor Xen
[08/20/2024 22:32]  Afsky: Afsky
[08/20/2024 22:32]  Krogu: An Lor Xen
[08/20/2024 22:32]  Krogu: Krogu (Young)
[08/20/2024 22:32]  oppla: An Lor Xen
[08/20/2024 22:32]  Krogu: An Lor Xen
[08/20/2024 22:32]  reneee: reneee (Young)
[08/20/2024 22:32]  Krogu: An Lor Xen
[08/20/2024 22:32]  oppla: An Lor Xen
[08/20/2024 22:32]  Warner the Watch: *area taunt*
[08/20/2024 22:32]  Krogu: An Lor Xen
[08/20/2024 22:32]  UlfrikStabson: UlfrikStabson (Young)
[08/20/2024 22:32]  oppla: An Lor Xen
[08/20/2024 22:32]  Afsky: An Lor Xen
[08/20/2024 22:32]  Krogu: An Lor Xen
[08/20/2024 22:32]  Afsky: Afsky
[08/20/2024 22:32]  Krogu: An Lor Xen
[08/20/2024 22:32]  Mrcrowelll: Mrcrowelll (Young)
[08/20/2024 22:32]  oppla: An Lor Xen
[08/20/2024 22:32]  Krogu: An Lor Xen
[08/20/2024 22:32]  Krogu: Krogu (Young)
[08/20/2024 22:32]  oppla: An Lor Xen
[08/20/2024 22:32]  System: MyFactionChar has completed the achievement: Versatility (Epic).
[08/20/2024 22:32]  Krogu: An Lor Xen
[08/20/2024 22:32]  Krogu: Krogu (Young)
[08/20/2024 22:32]  Sir Digsalot: An Lor Xen
[08/20/2024 22:32]  Krogu: An Lor Xen
[08/20/2024 22:32]  You see: a mongbat corpse
[08/20/2024 22:32]  oppla: An Lor Xen
[08/20/2024 22:32]  Sir Digsalot: An Lor Xen
[08/20/2024 22:32]  Afsky: An Lor Xen
[08/20/2024 22:32]  Krogu: Krogu (Young)
[08/20/2024 22:32]  oppla: An Lor Xen
[08/20/2024 22:32]  oppla: oppla (Young)
[08/20/2024 22:32]  Warner the Watch: *area taunt*
[08/20/2024 22:32]  Sir Digsalot: An Lor Xen
[08/20/2024 22:32]  Afsky: Afsky
[08/20/2024 22:32]  Selfdenx: Selfdenx (Young)
[08/20/2024 22:32]  a drake whelp: (tame)
[08/20/2024 22:32]  a drake whelp: a drake whelp
[08/20/2024 22:32]  a drake whelp: (tame)
[08/20/2024 22:32]  a drake whelp: a drake whelp
[08/20/2024 22:32]  oppla: An Lor Xen
[08/20/2024 22:32]  Sir Digsalot: An Lor Xen
[08/20/2024 22:32]  Selfdenx: Selfdenx (Young)
[08/20/2024 22:32]  Sir Digsalot: [Loyal, NKB]
[08/20/2024 22:32]  Sir Digsalot: Sir Digsalot
[08/20/2024 22:32]  a drake whelp: (tame)
[08/20/2024 22:32]  a drake whelp: a drake whelp
[08/20/2024 22:32]  a drake whelp: (tame)
[08/20/2024 22:32]  a drake whelp: a drake whelp
[08/20/2024 22:32]  a drake whelp: (tame)
[08/20/2024 22:32]  a drake whelp: a drake whelp
[08/20/2024 22:32]  a drake whelp: (tame)
[08/20/2024 22:32]  a drake whelp: a drake whelp
[08/20/2024 22:32]  oppla: An Lor Xen
[08/20/2024 22:32]  Chimmy: Transmuter
[08/20/2024 22:32]  Chimmy: Chimmy
[08/20/2024 22:32]  a drake whelp: (tame)
[08/20/2024 22:32]  a drake whelp: a drake whelp
[08/20/2024 22:32]  System: Your campfire is now secure.
[08/20/2024 22:32]  oppla: An Lor Xen
[08/20/2024 22:32]  a mongbat: a mongbat
[08/20/2024 22:32]  Afsky: An Lor Xen
[08/20/2024 22:32]  Tessie Gatherer: Tessie Gatherer (Young)
[08/20/2024 22:32]  Afsky: Afsky
[08/20/2024 22:32]  oppla: An Lor Xen
[08/20/2024 22:32]  oppla: oppla (Young)
[08/20/2024 22:32]  oppla: An Lor Xen
[08/20/2024 22:32]  Warner the Watch: *area taunt*
[08/20/2024 22:32]  Sir Digsalot: An Lor Xen
[08/20/2024 22:32]  oppla: An Lor Xen
[08/20/2024 22:32]  Afsky: An Lor Xen
[08/20/2024 22:32]  Sir Digsalot: An Lor Xen
[08/20/2024 22:32]  You see: a mongbat corpse
[08/20/2024 22:32]  oppla: An Lor Xen
[08/20/2024 22:33]  Afsky: Afsky
[08/20/2024 22:33]  Sir Digsalot: [Loyal, NKB]
[08/20/2024 22:33]  Sir Digsalot: Sir Digsalot
[08/20/2024 22:33]  oppla: An Lor Xen
[08/20/2024 22:33]  oppla: An Lor Xen
[08/20/2024 22:33]  oppla: oppla (Young)
[08/20/2024 22:33]  UlfrikStabson: UlfrikStabson (Young)
[08/20/2024 22:33]  oppla: An Lor Xen
[08/20/2024 22:33]  Afsky: An Lor Xen
[08/20/2024 22:33]  a mongbat: a mongbat
[08/20/2024 22:33]  Warner the Watch: *area taunt*
[08/20/2024 22:33]  Tessie Gatherer: Por Ort Grav
[08/20/2024 22:33]  Sanja: Sanja (Young)
[08/20/2024 22:33]  Tessie Gatherer: Por Ort Grav
[08/20/2024 22:33]  Afsky: Afsky
[08/20/2024 22:33]  oppla: An Lor Xen
[08/20/2024 22:33]  Tessie Gatherer: Por Ort Grav
[08/20/2024 22:33]  Chimmy: Transmuter
[08/20/2024 22:33]  Chimmy: Chimmy
[08/20/2024 22:33]  Tessie Gatherer: Por Ort Grav
[08/20/2024 22:33]  a mongbat: a mongbat
[08/20/2024 22:33]  oppla: An Lor Xen
[08/20/2024 22:33]  Tessie Gatherer: Por Ort Grav
[08/20/2024 22:33]  Sir Digsalot: An Lor Xen
[08/20/2024 22:33]  Thr ain: Thr ain (Young)
[08/20/2024 22:33]  Tessie Gatherer: Por Ort Grav
[08/20/2024 22:33]  oppla: An Lor Xen
[08/20/2024 22:33]  Sir Digsalot: [Loyal, NKB]
[08/20/2024 22:33]  Sir Digsalot: Sir Digsalot
[08/20/2024 22:33]  Tessie Gatherer: Por Ort Grav
[08/20/2024 22:33]  KatsuYoga: KatsuYoga (Young)
[08/20/2024 22:33]  Afsky: An Lor Xen
[08/20/2024 22:33]  Tessie Gatherer: Por Ort Grav
[08/20/2024 22:33]  reneee: reneee (Young)
[08/20/2024 22:33]  oppla: An Lor Xen
[08/20/2024 22:33]  Tessie Gatherer: Por Ort Grav
[08/20/2024 22:33]  Afsky: Afsky
[08/20/2024 22:33]  Tessie Gatherer: Por Ort Grav
[08/20/2024 22:33]  oppla: An Lor Xen
[08/20/2024 22:33]  Warner the Watch: *area taunt*
[08/20/2024 22:33]  Tessie Gatherer: Por Ort Grav
[08/20/2024 22:33]  Tessie Gatherer: In Vas Mani
[08/20/2024 22:33]  oppla: An Lor Xen
[08/20/2024 22:33]  You see: a mongbat corpse
[08/20/2024 22:33]  System: Players cannot commit aggressive actions in that location.
[08/20/2024 22:33]  oppla: An Lor Xen
[08/20/2024 22:33]  Warner the Watch: Live by the Oath: Uphold the Principles, Maintain the Virtues and Observe the Code of Chivalry
[08/20/2024 22:33]  Afsky: An Lor Xen
[08/20/2024 22:33]  Mavis Meow: Mavis Meow (Young)
[08/20/2024 22:33]  You see: a mongbat corpse
[08/20/2024 22:33]  System: Players cannot commit aggressive actions in that location.
[08/20/2024 22:33]  oppla: An Lor Xen
[08/20/2024 22:33]  Afsky: Afsky
[08/20/2024 22:33]  Sir Digsalot: An Lor Xen
[08/20/2024 22:33]  oppla: An Lor Xen
[08/20/2024 22:33]  Sir Digsalot: [Loyal, NKB]
[08/20/2024 22:33]  Sir Digsalot: Sir Digsalot
[08/20/2024 22:33]  oppla: An Lor Xen
[08/20/2024 22:33]  Sanja: Kal Xen
[08/20/2024 22:33]  Sanja: Sanja (Young)
[08/20/2024 22:33]  Warner the Watch: *area taunt*
[08/20/2024 22:33]  Krogu: An Lor Xen
[08/20/2024 22:33]  oppla: An Lor Xen
[08/20/2024 22:33]  Afsky: An Lor Xen
[08/20/2024 22:33]  You see: a mongbat corpse
[08/20/2024 22:33]  Krogu: An Lor Xen
[08/20/2024 22:33]  Krogu: Krogu (Young)
[08/20/2024 22:33]  Afsky: Afsky
[08/20/2024 22:33]  oppla: An Lor Xen
[08/20/2024 22:33]  Krogu: An Lor Xen
[08/20/2024 22:33]  Krogu: An Lor Xen
[08/20/2024 22:33]  Krogu: Krogu (Young)
[08/20/2024 22:33]  oppla: An Lor Xen
[08/20/2024 22:33]  Krogu: An Lor Xen
[08/20/2024 22:33]  Sanja: In Vas Mani
[08/20/2024 22:33]  oppla: An Lor Xen
[08/20/2024 22:34]  oppla: oppla (Young)
[08/20/2024 22:34]  Krogu: An Lor Xen
[08/20/2024 22:34]  Chimmy: Transmuter
[08/20/2024 22:34]  Chimmy: Chimmy
[08/20/2024 22:34]  Afsky: An Lor Xen
[08/20/2024 22:34]  Sir Digsalot: An Lor Xen
[08/20/2024 22:34]  Krogu: An Lor Xen
[08/20/2024 22:34]  Krogu: Krogu (Young)
[08/20/2024 22:34]  oppla: An Lor Xen
[08/20/2024 22:34]  Ashley Stabah: Ashley Stabah
[08/20/2024 22:34]  Zook Beren: Zook Beren (Young)
[08/20/2024 22:34]  Afsky: Afsky
[08/20/2024 22:34]  Krogu: An Lor Xen
[08/20/2024 22:34]  Sir Digsalot: An Lor Xen
[08/20/2024 22:34]  Warner the Watch: *area taunt*
[08/20/2024 22:34]  oppla: An Lor Xen
[08/20/2024 22:34]  Krogu: An Lor Xen
[08/20/2024 22:34]  Sir Digsalot: [Loyal, NKB]
[08/20/2024 22:34]  Sir Digsalot: Sir Digsalot
[08/20/2024 22:34]  Krogu: An Lor Xen
[08/20/2024 22:34]  oppla: An Lor Xen
[08/20/2024 22:34]  Tessie Gatherer: Por Ort Grav
[08/20/2024 22:34]  Krogu: An Lor Xen
[08/20/2024 22:34]  Krogu: Krogu (Young)
[08/20/2024 22:34]  Tessie Gatherer: Por Ort Grav
[08/20/2024 22:34]  oppla: An Lor Xen
[08/20/2024 22:34]  Krogu: An Lor Xen
[08/20/2024 22:34]  Tessie Gatherer: Por Ort Grav
[08/20/2024 22:34]  Krogu: Krogu (Young)
[08/20/2024 22:34]  Afsky: An Lor Xen
[08/20/2024 22:34]  Coromir: Pirate
[08/20/2024 22:34]  Coromir: [Piliers des liens, LDS]
[08/20/2024 22:34]  Coromir: Coromir
[08/20/2024 22:34]  Tessie Gatherer: Por Ort Grav
[08/20/2024 22:34]  Krogu: An Lor Xen
[08/20/2024 22:34]  Afsky: Afsky
[08/20/2024 22:34]  oppla: An Lor Xen
[08/20/2024 22:34]  Tessie Gatherer: Por Ort Grav
[08/20/2024 22:34]  Krogu: An Lor Xen
[08/20/2024 22:34]  Krogu: Krogu (Young)
[08/20/2024 22:34]  Mrcrowelll: Mrcrowelll (Young)
[08/20/2024 22:34]  Tessie Gatherer: In Vas Mani
[08/20/2024 22:34]  You see: the remains of Llewbach
[08/20/2024 22:34]  oppla: An Lor Xen
[08/20/2024 22:34]  Krogu: Krogu (Young)
[08/20/2024 22:34]  Tessie Gatherer: In Vas Mani
[08/20/2024 22:34]  Tessie Gatherer: Por Ort Grav
[08/20/2024 22:34]  Warner the Watch: *area taunt*
[08/20/2024 22:34]  oppla: An Lor Xen
[08/20/2024 22:34]  Tessie Gatherer: Por Ort Grav
[08/20/2024 22:34]  Sir Digsalot: An Lor Xen
[08/20/2024 22:34]  Afsky: An Lor Xen
[08/20/2024 22:34]  oppla: An Lor Xen
[08/20/2024 22:34]  Sir Digsalot: [Loyal, NKB]
[08/20/2024 22:34]  Sir Digsalot: Sir Digsalot
[08/20/2024 22:34]  Afsky: Afsky
[08/20/2024 22:34]  oppla: An Lor Xen
[08/20/2024 22:34]  oppla: oppla (Young)
[08/20/2024 22:34]  Sanja: Kal Xen
[08/20/2024 22:34]  oppla: An Lor Xen
[08/20/2024 22:34]  You see: a mongbat corpse
[08/20/2024 22:34]  Coromir: Pirate
[08/20/2024 22:34]  Coromir: [Piliers des liens, LDS]
[08/20/2024 22:34]  Coromir: Coromir
[08/20/2024 22:34]  oppla: An Lor Xen
[08/20/2024 22:34]  oppla: oppla (Young)
[08/20/2024 22:34]  Afsky: An Lor Xen
[08/20/2024 22:34]  Warner the Watch: *area taunt*
[08/20/2024 22:34]  Afsky: Afsky
[08/20/2024 22:34]  oppla: An Lor Xen
[08/20/2024 22:34]  a horse: (tame)
[08/20/2024 22:34]  a horse: a horse
[08/20/2024 22:34]  Ripper: [DTF]
[08/20/2024 22:34]  Ripper: Ripper
[08/20/2024 22:34]  Sanja: In Vas Mani
[08/20/2024 22:34]  oppla: An Lor Xen
[08/20/2024 22:34]  oppla: oppla (Young)
[08/20/2024 22:34]  Sir Digsalot: An Lor Xen
[08/20/2024 22:34]  oppla: An Lor Xen
[08/20/2024 22:34]  Sir Digsalot: [Loyal, NKB]
[08/20/2024 22:34]  Sir Digsalot: Sir Digsalot
[08/20/2024 22:34]  Afsky: An Lor Xen
[08/20/2024 22:34]  oppla: An Lor Xen
[08/20/2024 22:34]  oppla: oppla (Young)
[08/20/2024 22:34]  System: Bronzer has completed the achievement: Undead Slayer (Advanced).
[08/20/2024 22:34]  Afsky: Afsky
[08/20/2024 22:34]  oppla: An Lor Xen
[08/20/2024 22:34]  oppla: oppla (Young)
[08/20/2024 22:35]  oppla: oppla (Young)
[08/20/2024 22:35]  Warner the Watch: *area taunt*
[08/20/2024 22:35]  Tessie Gatherer: Por Ort Grav
[08/20/2024 22:35]  oppla: An Lor Xen
[08/20/2024 22:35]  Tessie Gatherer: Por Ort Grav
[08/20/2024 22:35]  Mattss: Mattss
[08/20/2024 22:35]  Afsky: An Lor Xen
[08/20/2024 22:35]  a mongbat: a mongbat
[08/20/2024 22:35]  Tessie Gatherer: Por Ort Grav
[08/20/2024 22:35]  oppla: An Lor Xen
[08/20/2024 22:35]  Afsky: Afsky
[08/20/2024 22:35]  Tessie Gatherer: Por Ort Grav
[08/20/2024 22:35]  Sir Digsalot: An Lor Xen
[08/20/2024 22:35]  Tessie Gatherer: In Vas Mani
[08/20/2024 22:35]  oppla: An Lor Xen
[08/20/2024 22:35]  Sir Digsalot: [Loyal, NKB]
[08/20/2024 22:35]  Sir Digsalot: Sir Digsalot
[08/20/2024 22:35]  Tessie Gatherer: Por Ort Grav
[08/20/2024 22:35]  Tessie Gatherer: Por Ort Grav
[08/20/2024 22:35]  You see: a mongbat corpse
[08/20/2024 22:35]  oppla: An Lor Xen
[08/20/2024 22:35]  Tessie Gatherer: Por Ort Grav
[08/20/2024 22:35]  Afsky: An Lor Xen
[08/20/2024 22:35]  Tessie Gatherer: Por Ort Grav
[08/20/2024 22:35]  Warner the Watch: *area taunt*
[08/20/2024 22:35]  oppla: An Lor Xen
[08/20/2024 22:35]  Afsky: Afsky
[08/20/2024 22:35]  oppla: An Lor Xen
[08/20/2024 22:35]  a mongbat: a mongbat
[08/20/2024 22:35]  oppla: An Lor Xen
[08/20/2024 22:35]  Krogu: An Lor Xen
[08/20/2024 22:35]  Slobbo Gobbo: Slobbo Gobbo (Young)
[08/20/2024 22:35]  oppla: An Lor Xen
[08/20/2024 22:35]  Afsky: An Lor Xen
[08/20/2024 22:35]  Krogu: An Lor Xen
[08/20/2024 22:35]  Krogu: Krogu (Young)
[08/20/2024 22:35]  Sir Digsalot: An Lor Xen
[08/20/2024 22:35]  oppla: An Lor Xen
[08/20/2024 22:35]  Afsky: Afsky
[08/20/2024 22:35]  Krogu: An Lor Xen
[08/20/2024 22:35]  Krogu: Krogu (Young)
[08/20/2024 22:35]  Sir Digsalot: [Loyal, NKB]
[08/20/2024 22:35]  Sir Digsalot: Sir Digsalot
[08/20/2024 22:35]  Krogu: An Lor Xen
[08/20/2024 22:35]  Warner the Watch: *area taunt*
[08/20/2024 22:35]  oppla: An Lor Xen
[08/20/2024 22:35]  Krogu: An Lor Xen
[08/20/2024 22:35]  Krogu: Krogu (Young)
[08/20/2024 22:35]  System: Your campfire is now secure.
[08/20/2024 22:35]  oppla: An Lor Xen
[08/20/2024 22:35]  oppla: oppla (Young)
[08/20/2024 22:35]  Krogu: An Lor Xen
[08/20/2024 22:35]  Krogu: Krogu (Young)
[08/20/2024 22:35]  Ashley Stabah: Ashley Stabah
[08/20/2024 22:35]  Krogu: Krogu (Young)
[08/20/2024 22:35]  oppla: An Lor Xen
[08/20/2024 22:35]  oppla: oppla (Young)
[08/20/2024 22:35]  FastandCurious: FastandCurious (Young)
[08/20/2024 22:35]  oppla: oppla (Young)
[08/20/2024 22:35]  UlfrikStabson: UlfrikStabson (Young)
[08/20/2024 22:35]  oppla: An Lor Xen
[08/20/2024 22:35]  Romul: Romul (Young)
[08/20/2024 22:35]  Sir Digsalot: An Lor Xen
[08/20/2024 22:35]  a flamehound: (summoned)
[08/20/2024 22:35]  a flamehound: a flamehound
[08/20/2024 22:35]  a flamehound: (summoned)
[08/20/2024 22:35]  a flamehound: a flamehound
[08/20/2024 22:35]  a monitor hatchling: (summoned)
[08/20/2024 22:35]  a monitor hatchling: a monitor hatchling
[08/20/2024 22:35]  Tessie Gatherer: Por Ort Grav
[08/20/2024 22:35]  Warner the Watch: *area taunt*
[08/20/2024 22:35]  Sir Digsalot: [Loyal, NKB]
[08/20/2024 22:35]  Sir Digsalot: Sir Digsalot
[08/20/2024 22:35]  Tessie Gatherer: Por Ort Grav
[08/20/2024 22:35]  oppla: oppla (Young)
[08/20/2024 22:35]  Tessie Gatherer: In Vas Mani
[08/20/2024 22:36]  Tessie Gatherer: Por Ort Grav
[08/20/2024 22:36]  Tessie Gatherer: Por Ort Grav
[08/20/2024 22:36]  Tessie Gatherer: Por Ort Grav
[08/20/2024 22:36]  You see: a mongbat corpse
[08/20/2024 22:36]  Warner the Watch: If ever in need of aid, see thee the Knights Guild
[08/20/2024 22:36]  oppla: An Lor Xen
[08/20/2024 22:36]  oppla: An Lor Xen
[08/20/2024 22:36]  Warner the Watch: *area taunt*
[08/20/2024 22:36]  oppla: An Lor Xen
[08/20/2024 22:36]  Sir Digsalot: An Lor Xen
[08/20/2024 22:36]  oppla: An Lor Xen
[08/20/2024 22:36]  Sir Digsalot: [Loyal, NKB]
[08/20/2024 22:36]  Sir Digsalot: Sir Digsalot
[08/20/2024 22:36]  reneee: reneee (Young)
[08/20/2024 22:36]  UlfrikStabson: UlfrikStabson (Young)
[08/20/2024 22:36]  a mongbat: a mongbat
[08/20/2024 22:36]  a mongbat: a mongbat
[08/20/2024 22:36]  oppla: An Lor Xen
[08/20/2024 22:36]  System: Shug Dug has completed the achievement: Transmutation (Basic).
[08/20/2024 22:36]  oppla: oppla (Young)
[08/20/2024 22:36]  BukakkeSaka: Legendary Scribe
[08/20/2024 22:36]  BukakkeSaka: [The Tavern], [tT]
[08/20/2024 22:36]  BukakkeSaka: BukakkeSaka
[08/20/2024 22:36]  Ashley Stabah: Ashley Stabah
[08/20/2024 22:36]  Mavis Meow: Mavis Meow (Young)
[08/20/2024 22:36]  a mongbat: a mongbat
[08/20/2024 22:36]  a giant rat: a giant rat
[08/20/2024 22:36]  a mongbat: a mongbat
[08/20/2024 22:36]  a mongbat: a mongbat
[08/20/2024 22:36]  oppla: An Lor Xen
[08/20/2024 22:36]  a wounded harpy: a wounded harpy
[08/20/2024 22:36]  Warner the Watch: *area taunt*
[08/20/2024 22:36]  oppla: An Lor Xen
[08/20/2024 22:36]  oppla: An Lor Xen
[08/20/2024 22:36]  Elminster Aummar: [Nordico, BRvk]
[08/20/2024 22:36]  Elminster Aummar: Elminster Aummar
[08/20/2024 22:36]  Sir Digsalot: An Lor Xen
[08/20/2024 22:36]  oppla: An Lor Xen
[08/20/2024 22:36]  You see: the remains of Mattss
[08/20/2024 22:36]  oppla: oppla (Young)
[08/20/2024 22:36]  Sir Digsalot: An Lor Xen
[08/20/2024 22:36]  Tessie Gatherer: Por Ort Grav
[08/20/2024 22:36]  Rolen: Rolen
[08/20/2024 22:36]  Sir Digsalot: [Loyal, NKB]
[08/20/2024 22:36]  Sir Digsalot: Sir Digsalot
[08/20/2024 22:36]  Tessie Gatherer: Por Ort Grav
[08/20/2024 22:36]  Tessie Gatherer: Por Ort Grav
[08/20/2024 22:36]  You see: a mongbat corpse
[08/20/2024 22:36]  System: Players cannot commit aggressive actions in that location.
[08/20/2024 22:36]  reneee: reneee (Young)
[08/20/2024 22:36]  Tessie Gatherer: In Vas Mani
[08/20/2024 22:36]  System: Holy symbols remaining: 5/6
[08/20/2024 22:36]  Warner the Watch: *area taunt*
[08/20/2024 22:36]  Tessie Gatherer: Por Ort Grav
[08/20/2024 22:36]  Tessie Gatherer: Por Ort Grav
[08/20/2024 22:36]  oppla: oppla (Young)
[08/20/2024 22:36]  Tessie Gatherer: An Lor Xen
[08/20/2024 22:36]  System: Max holy symbols earned (6/6)
[08/20/2024 22:36]  oppla: An Lor Xen
[08/20/2024 22:36]  a mongbat: a mongbat
[08/20/2024 22:36]  You see: a mongbat corpse
[08/20/2024 22:36]  Tessie Gatherer: An Lor Xen
[08/20/2024 22:36]  oppla: An Lor Xen
[08/20/2024 22:36]  Tessie Gatherer: An Lor Xen
[08/20/2024 22:36]  You see: a wounded harpy corpse
[08/20/2024 22:36]  System: Players cannot commit aggressive actions in that location.
[08/20/2024 22:37]  Krogu: An Lor Xen
[08/20/2024 22:37]  Tessie Gatherer: An Lor Xen
[08/20/2024 22:37]  Sir Digsalot: An Lor Xen
[08/20/2024 22:37]  FastandCurious: FastandCurious (Young)
[08/20/2024 22:37]  oppla: An Lor Xen
[08/20/2024 22:37]  Krogu: An Lor Xen
[08/20/2024 22:37]  Krogu: Krogu (Young)
[08/20/2024 22:37]  Tessie Gatherer: An Lor Xen
[08/20/2024 22:37]  Sir Digsalot: An Lor Xen
[08/20/2024 22:37]  You see: a mongbat corpse
[08/20/2024 22:37]  System: Players cannot commit aggressive actions in that location.
[08/20/2024 22:37]  Krogu: An Lor Xen
[08/20/2024 22:37]  oppla: An Lor Xen
[08/20/2024 22:37]  Tessie Gatherer: An Lor Xen
[08/20/2024 22:37]  Sir Digsalot: [Loyal, NKB]
[08/20/2024 22:37]  Sir Digsalot: Sir Digsalot
[08/20/2024 22:37]  Krogu: An Lor Xen
[08/20/2024 22:37]  Tessie Gatherer: An Lor Xen
[08/20/2024 22:37]  oppla: oppla (Young)
[08/20/2024 22:37]  Warner the Watch: *area taunt*
[08/20/2024 22:37]  Chimmy: Transmuter
[08/20/2024 22:37]  Chimmy: Chimmy
[08/20/2024 22:37]  You see: a mongbat corpse
[08/20/2024 22:37]  System: Players cannot commit aggressive actions in that location.
[08/20/2024 22:37]  Krogu: An Lor Xen
[08/20/2024 22:37]  Tessie Gatherer: An Lor Xen
[08/20/2024 22:37]  Krogu: An Lor Xen
[08/20/2024 22:37]  Krogu: Krogu (Young)
[08/20/2024 22:37]  oppla: An Lor Xen
[08/20/2024 22:37]  Tessie Gatherer: An Lor Xen
[08/20/2024 22:37]  Thr ain: Thr ain (Young)
[08/20/2024 22:37]  Krogu: An Lor Xen
[08/20/2024 22:37]  Tessie Gatherer: An Lor Xen
[08/20/2024 22:37]  System: Rainardo Idricci has completed the achievement: Beastial Slayer (Advanced).
[08/20/2024 22:37]  System: LA GGGGGILDA (ITA.) guild has reached prestige level 201.
[08/20/2024 22:37]  Krogu: An Lor Xen
[08/20/2024 22:37]  Krogu: Krogu (Young)
[08/20/2024 22:37]  Tessie Gatherer: An Lor Xen
[08/20/2024 22:37]  oppla: oppla (Young)
[08/20/2024 22:37]  You see: a giant rat corpse
[08/20/2024 22:37]  System: Players cannot commit aggressive actions in that location.
[08/20/2024 22:37]  Krogu: An Lor Xen
[08/20/2024 22:37]  Tessie Gatherer: An Lor Xen
[08/20/2024 22:37]  You see: a mongbat corpse
[08/20/2024 22:37]  System: Players cannot commit aggressive actions in that location.
[08/20/2024 22:37]  Krogu: An Lor Xen
[08/20/2024 22:37]  Tessie Gatherer: An Lor Xen
[08/20/2024 22:37]  Krogu: Krogu (Young)
[08/20/2024 22:37]  Krogu: An Lor Xen
[08/20/2024 22:37]  Tessie Gatherer: An Lor Xen
[08/20/2024 22:37]  Krogu: Krogu (Young)
[08/20/2024 22:37]  Sir Digsalot: An Lor Xen
[08/20/2024 22:37]  reneee: reneee (Young)
[08/20/2024 22:37]  Warner the Watch: *area taunt*
[08/20/2024 22:37]  Tessie Gatherer: An Lor Xen
[08/20/2024 22:37]  Krogu: Krogu (Young)
[08/20/2024 22:37]  Sir Digsalot: [Loyal, NKB]
[08/20/2024 22:37]  Sir Digsalot: Sir Digsalot
[08/20/2024 22:37]  oppla: An Lor Xen
[08/20/2024 22:37]  Tessie Gatherer: An Lor Xen
[08/20/2024 22:37]  Rolen: Rolen
[08/20/2024 22:37]  System: Holy symbols remaining: 5/6
[08/20/2024 22:37]  Chimmy: Transmuter
[08/20/2024 22:37]  Chimmy: Chimmy
[08/20/2024 22:37]  Tessie Gatherer: An Lor Xen
[08/20/2024 22:37]  oppla: An Lor Xen
[08/20/2024 22:37]  Ashley Stabah: Ashley Stabah
[08/20/2024 22:37]  a mongbat: a mongbat
[08/20/2024 22:37]  Tessie Gatherer: An Lor Xen
[08/20/2024 22:37]  FastandCurious: FastandCurious (Young)
[08/20/2024 22:37]  oppla: An Lor Xen
[08/20/2024 22:37]  System: Max holy symbols earned (6/6)
[08/20/2024 22:37]  Tessie Gatherer: An Lor Xen
[08/20/2024 22:37]  Tessie Gatherer: An Lor Xen
[08/20/2024 22:37]  oppla: An Lor Xen
[08/20/2024 22:37]  You see: a mongbat corpse
[08/20/2024 22:37]  System: Players cannot commit aggressive actions in that location.
[08/20/2024 22:37]  Tessie Gatherer: An Lor Xen
[08/20/2024 22:37]  oppla: An Lor Xen
[08/20/2024 22:37]  Tessie Gatherer: An Lor Xen
[08/20/2024 22:37]  oppla: oppla (Young)
[08/20/2024 22:37]  Warner the Watch: *area taunt*
[08/20/2024 22:37]  Tessie Gatherer: An Lor Xen
[08/20/2024 22:37]  Sir Digsalot: An Lor Xen
[08/20/2024 22:37]  Tessie Gatherer: An Lor Xen
[08/20/2024 22:37]  oppla: An Lor Xen
[08/20/2024 22:37]  You see: a mongbat corpse
[08/20/2024 22:37]  Sir Digsalot: [Loyal, NKB]
[08/20/2024 22:37]  Sir Digsalot: Sir Digsalot
[08/20/2024 22:37]  Tessie Gatherer: An Lor Xen
[08/20/2024 22:37]  oppla: An Lor Xen
[08/20/2024 22:37]  Tessie Gatherer: An Lor Xen
[08/20/2024 22:37]  Tessie Gatherer: An Lor Xen
[08/20/2024 22:37]  oppla: An Lor Xen
[08/20/2024 22:37]  Tessie Gatherer: An Lor Xen
[08/20/2024 22:37]  Nancy.J.M: Nancy.J.M (Young)
[08/20/2024 22:38]  oppla: An Lor Xen
[08/20/2024 22:38]  Tessie Gatherer: An Lor Xen
[08/20/2024 22:38]  System: Holy symbols remaining: 5/6
[08/20/2024 22:38]  Tessie Gatherer: An Lor Xen
[08/20/2024 22:38]  oppla: oppla (Young)
[08/20/2024 22:38]  Warner the Watch: *area taunt*
[08/20/2024 22:38]  Tessie Gatherer: An Lor Xen
[08/20/2024 22:38]  Tessie Gatherer: Tessie Gatherer (Young)
[08/20/2024 22:38]  Chimmy: Transmuter
[08/20/2024 22:38]  Chimmy: Chimmy
[08/20/2024 22:38]  Sanja: Sanja (Young)
[08/20/2024 22:38]  Ashley Stabah: Ashley Stabah
[08/20/2024 22:38]  System: Max holy symbols earned (6/6)
[08/20/2024 22:38]  Tessie Gatherer: An Lor Xen
[08/20/2024 22:38]  oppla: An Lor Xen
[08/20/2024 22:38]  Tessie Gatherer: An Lor Xen
[08/20/2024 22:38]  Sir Digsalot: An Lor Xen
[08/20/2024 22:38]  Tessie Gatherer: An Lor Xen
[08/20/2024 22:38]  oppla: An Lor Xen
[08/20/2024 22:38]  UlfrikStabson: UlfrikStabson (Young)
[08/20/2024 22:38]  Sir Digsalot: An Lor Xen
[08/20/2024 22:38]  Tessie Gatherer: An Lor Xen
[08/20/2024 22:38]  Tessie Gatherer: Tessie Gatherer (Young)
[08/20/2024 22:38]  oppla: oppla (Young)
[08/20/2024 22:38]  Sir Digsalot: [Loyal, NKB]
[08/20/2024 22:38]  Sir Digsalot: Sir Digsalot
[08/20/2024 22:38]  Tessie Gatherer: An Lor Xen
[08/20/2024 22:38]  a zombie: a zombie
[08/20/2024 22:38]  Tessie Gatherer: An Lor Xen
[08/20/2024 22:38]  Tessie Gatherer: Tessie Gatherer (Young)
[08/20/2024 22:38]  Tessie Gatherer: Tessie Gatherer (Young)
[08/20/2024 22:38]  Warner the Watch: *area taunt*
[08/20/2024 22:38]  oppla: An Lor Xen
[08/20/2024 22:38]  oppla: An Lor Xen
[08/20/2024 22:38]  Nancy.J.M: who can teach me chivalry?
[08/20/2024 22:38]  oppla: oppla (Young)
[08/20/2024 22:38]  Sir Digsalot: An Lor Xen
[08/20/2024 22:38]  You see: a mongbat corpse
[08/20/2024 22:38]  Sir Digsalot: [Loyal, NKB]
[08/20/2024 22:38]  Sir Digsalot: Sir Digsalot
[08/20/2024 22:38]  Warner the Watch: The Knights Guild shalt always stand for the good and shalt Uphold the Virtues!
[08/20/2024 22:38]  Ashley Stabah: Ashley Stabah
[08/20/2024 22:38]  oppla: An Lor Xen
[08/20/2024 22:38]  Warner the Watch: *area taunt*
[08/20/2024 22:38]  You see: a mongbat corpse
[08/20/2024 22:38]  Krogu: An Lor Xen
[08/20/2024 22:38]  oppla: An Lor Xen
[08/20/2024 22:38]  Krogu: An Lor Xen
[08/20/2024 22:38]  Krogu: Krogu (Young)
[08/20/2024 22:38]  Vinklander: Vinklander (Young)
[08/20/2024 22:38]  Krogu: An Lor Xen
[08/20/2024 22:38]  oppla: An Lor Xen
[08/20/2024 22:38]  Krogu: Krogu (Young)
[08/20/2024 22:38]  Krogu: An Lor Xen
[08/20/2024 22:38]  Krogu: Krogu (Young)
[08/20/2024 22:38]  oppla: An Lor Xen
[08/20/2024 22:38]  oppla: oppla (Young)
[08/20/2024 22:38]  Krogu: An Lor Xen
[08/20/2024 22:38]  You see: a mongbat corpse
[08/20/2024 22:38]  FastandCurious: FastandCurious (Young)
[08/20/2024 22:38]  Krogu: An Lor Xen
[08/20/2024 22:38]  oppla: An Lor Xen
[08/20/2024 22:38]  Krogu: Krogu (Young)
[08/20/2024 22:38]  Sir Digsalot: An Lor Xen
[08/20/2024 22:38]  Krogu: Krogu (Young)
[08/20/2024 22:38]  Amarante: Amarante
[08/20/2024 22:38]  oppla: An Lor Xen
[08/20/2024 22:38]  Warner the Watch: *area taunt*
[08/20/2024 22:38]  Sir Digsalot: An Lor Xen
[08/20/2024 22:39]  oppla: An Lor Xen
[08/20/2024 22:39]  oppla: oppla (Young)
[08/20/2024 22:39]  Tessie Gatherer: An Lor Xen
[08/20/2024 22:39]  Sir Digsalot: An Lor Xen
[08/20/2024 22:39]  UlfrikStabson: UlfrikStabson (Young)
[08/20/2024 22:39]  oppla: An Lor Xen
[08/20/2024 22:39]  oppla: oppla (Young)
[08/20/2024 22:39]  Tessie Gatherer: An Lor Xen
[08/20/2024 22:39]  Nancy.J.M: who can teach me chivalry?
[08/20/2024 22:39]  Tessie Gatherer: Tessie Gatherer (Young)
[08/20/2024 22:39]  Sir Digsalot: An Lor Xen
[08/20/2024 22:39]  a zombie: a zombie
[08/20/2024 22:39]  Tessie Gatherer: An Lor Xen
[08/20/2024 22:39]  oppla: An Lor Xen
[08/20/2024 22:39]  Sir Digsalot: [Loyal, NKB]
[08/20/2024 22:39]  Sir Digsalot: Sir Digsalot
[08/20/2024 22:39]  Tessie Gatherer: An Lor Xen
[08/20/2024 22:39]  oppla: An Lor Xen
[08/20/2024 22:39]  Chimmy: Transmuter
[08/20/2024 22:39]  Chimmy: Chimmy
[08/20/2024 22:39]  Tessie Gatherer: An Lor Xen
[08/20/2024 22:39]  oppla: oppla (Young)
[08/20/2024 22:39]  Tessie Gatherer: An Lor Xen
[08/20/2024 22:39]  Tessie Gatherer: Tessie Gatherer (Young)
[08/20/2024 22:39]  a mongbat: a mongbat
[08/20/2024 22:39]  Tessie Gatherer: An Lor Xen
[08/20/2024 22:39]  Warner the Watch: *area taunt*
[08/20/2024 22:39]  Tessie Gatherer: An Lor Xen
[08/20/2024 22:39]  Nancy.J.M: Nancy.J.M (Young)
[08/20/2024 22:39]  oppla: An Lor Xen
[08/20/2024 22:39]  Tessie Gatherer: An Lor Xen
[08/20/2024 22:39]  Ashley Stabah: Ashley Stabah
[08/20/2024 22:39]  Sir Digsalot: An Lor Xen
[08/20/2024 22:39]  Tessie Gatherer: An Lor Xen
[08/20/2024 22:39]  oppla: oppla (Young)
[08/20/2024 22:39]  Fathom.: Cambria
[08/20/2024 22:39]  Fathom.: [P]
[08/20/2024 22:39]  Fathom.: Fathom.
[08/20/2024 22:39]  Sir Digsalot: [Loyal, NKB]
[08/20/2024 22:39]  Sir Digsalot: Sir Digsalot
[08/20/2024 22:39]  Tessie Gatherer: An Lor Xen
[08/20/2024 22:39]  Tessie Gatherer: Tessie Gatherer (Young)
[08/20/2024 22:39]  a wounded harpy: a wounded harpy
[08/20/2024 22:39]  Tessie Gatherer: An Lor Xen
[08/20/2024 22:39]  Thr ain: Thr ain (Young)
[08/20/2024 22:39]  Tessie Gatherer: An Lor Xen
[08/20/2024 22:39]  a mongbat: a mongbat
[08/20/2024 22:39]  Tessie Gatherer: An Lor Xen
[08/20/2024 22:39]  UlfrikStabson: UlfrikStabson (Young)
[08/20/2024 22:39]  oppla: An Lor Xen
[08/20/2024 22:39]  Vinklander: Vinklander (Young)
[08/20/2024 22:39]  Warner the Watch: *area taunt*
[08/20/2024 22:39]  Tessie Gatherer: An Lor Xen
[08/20/2024 22:39]  Tessie Gatherer: Tessie Gatherer (Young)
[08/20/2024 22:39]  Mattss: Mattss
[08/20/2024 22:39]  oppla: An Lor Xen
[08/20/2024 22:39]  Tessie Gatherer: An Lor Xen
[08/20/2024 22:39]  Sanja: Sanja (Young)
[08/20/2024 22:39]  Tessie Gatherer: An Lor Xen
[08/20/2024 22:39]  Tessie Gatherer: Tessie Gatherer (Young)
[08/20/2024 22:39]  oppla: An Lor Xen
[08/20/2024 22:39]  Tessie Gatherer: Tessie Gatherer (Young)
[08/20/2024 22:39]  oppla: oppla (Young)
[08/20/2024 22:39]  Chimmy: Transmuter
[08/20/2024 22:39]  Chimmy: Chimmy
[08/20/2024 22:39]  Sir Digsalot: An Lor Xen
[08/20/2024 22:39]  Elminster Aummar: [Nordico, BRvk]
[08/20/2024 22:39]  Elminster Aummar: Elminster Aummar
[08/20/2024 22:39]  Sir Digsalot: [Loyal, NKB]
[08/20/2024 22:39]  Sir Digsalot: Sir Digsalot
[08/20/2024 22:39]  oppla: An Lor Xen
[08/20/2024 22:39]  You see: a wounded harpy corpse
[08/20/2024 22:39]  Warner the Watch: *area taunt*
[08/20/2024 22:39]  Elminster Aummar: In Por Ylem
[08/20/2024 22:39]  oppla: An Lor Xen
[08/20/2024 22:39]  oppla: oppla (Young)
[08/20/2024 22:39]  Elminster Aummar: In Por Ylem
[08/20/2024 22:39]  FastandCurious: FastandCurious (Young)
[08/20/2024 22:39]  Elminster Aummar: In Por Ylem
[08/20/2024 22:39]  oppla: An Lor Xen
[08/20/2024 22:40]  a grizzly bear: (summoned)
[08/20/2024 22:40]  a grizzly bear: a grizzly bear
[08/20/2024 22:40]  a grizzly bear: (summoned)
[08/20/2024 22:40]  a grizzly bear: a grizzly bear
[08/20/2024 22:40]  a grizzly bear: (summoned)
[08/20/2024 22:40]  a grizzly bear: a grizzly bear
[08/20/2024 22:40]  a monitor hatchling: (summoned)
[08/20/2024 22:40]  a monitor hatchling: a monitor hatchling
[08/20/2024 22:40]  a flamehound: (summoned)
[08/20/2024 22:40]  a flamehound: a flamehound
[08/20/2024 22:40]  Romul: Romul (Young)
[08/20/2024 22:40]  oppla: oppla (Young)
[08/20/2024 22:40]  Elminster Aummar: In Por Ylem
[08/20/2024 22:40]  Elminster Aummar: In Por Ylem
[08/20/2024 22:40]  Sir Digsalot: An Lor Xen
[08/20/2024 22:40]  oppla: An Lor Xen
[08/20/2024 22:40]  Sir Digsalot: An Lor Xen
[08/20/2024 22:40]  Warner the Watch: *area taunt*
[08/20/2024 22:40]  oppla: An Lor Xen
[08/20/2024 22:40]  Sanja: Sanja (Young)
[08/20/2024 22:40]  Sir Digsalot: [Loyal, NKB]
[08/20/2024 22:40]  Sir Digsalot: Sir Digsalot
[08/20/2024 22:40]  Krogu: An Lor Xen
[08/20/2024 22:40]  KatsuYoga: KatsuYoga (Young)
[08/20/2024 22:40]  Krogu: An Lor Xen
[08/20/2024 22:40]  oppla: oppla (Young)
[08/20/2024 22:40]  Krogu: Krogu (Young)
[08/20/2024 22:40]  Krogu: An Lor Xen
[08/20/2024 22:40]  Krogu: Krogu (Young)
[08/20/2024 22:40]  You see: a mongbat corpse
[08/20/2024 22:40]  Krogu: An Lor Xen
[08/20/2024 22:40]  Krogu: Krogu (Young)
[08/20/2024 22:40]  Krogu: An Lor Xen
[08/20/2024 22:40]  Krogu: Krogu (Young)
[08/20/2024 22:40]  Tessie Gatherer: An Lor Xen
[08/20/2024 22:40]  oppla: An Lor Xen
[08/20/2024 22:40]  Krogu: Krogu (Young)
[08/20/2024 22:40]  Tessie Gatherer: An Lor Xen
[08/20/2024 22:40]  Tessie Gatherer: An Lor Xen
[08/20/2024 22:40]  oppla: An Lor Xen
[08/20/2024 22:40]  Chimmy: Transmuter
[08/20/2024 22:40]  Chimmy: Chimmy
[08/20/2024 22:40]  Tessie Gatherer: An Lor Xen
[08/20/2024 22:40]  System: ExoSneaky has completed the achievement: Black Marketeer (Basic).
[08/20/2024 22:40]  Warner the Watch: *area taunt*
[08/20/2024 22:40]  oppla: oppla (Young)
[08/20/2024 22:40]  Sir Digsalot: An Lor Xen
[08/20/2024 22:40]  Tessie Gatherer: An Lor Xen
[08/20/2024 22:40]  Tessie Gatherer: An Lor Xen
[08/20/2024 22:40]  Tessie Gatherer: Tessie Gatherer (Young)
[08/20/2024 22:40]  Sir Digsalot: An Lor Xen
[08/20/2024 22:40]  Tessie Gatherer: An Lor Xen
[08/20/2024 22:40]  Sir Digsalot: [Loyal, NKB]
[08/20/2024 22:40]  Sir Digsalot: Sir Digsalot
[08/20/2024 22:40]  Tessie Gatherer: An Lor Xen
[08/20/2024 22:40]  oppla: An Lor Xen
[08/20/2024 22:40]  Tessie Gatherer: An Lor Xen
[08/20/2024 22:40]  oppla: oppla (Young)
[08/20/2024 22:40]  Tessie Gatherer: An Lor Xen
[08/20/2024 22:40]  Tessie Gatherer: An Lor Xen
[08/20/2024 22:40]  Tessie Gatherer: An Lor Xen
[08/20/2024 22:40]  Warner the Watch: *area taunt*
[08/20/2024 22:40]  Tessie Gatherer: An Lor Xen
[08/20/2024 22:40]  BukakkeSaka: Legendary Scribe
[08/20/2024 22:40]  BukakkeSaka: [The Tavern], [tT]
[08/20/2024 22:40]  BukakkeSaka: BukakkeSaka
[08/20/2024 22:40]  oppla: An Lor Xen
[08/20/2024 22:40]  Tessie Gatherer: An Lor Xen
[08/20/2024 22:40]  Tessie Gatherer: Tessie Gatherer (Young)
[08/20/2024 22:40]  Sir Digsalot: An Lor Xen
[08/20/2024 22:40]  Tessie Gatherer: An Lor Xen
[08/20/2024 22:40]  oppla: An Lor Xen
[08/20/2024 22:40]  Tessie Gatherer: An Lor Xen
[08/20/2024 22:40]  Sir Digsalot: [Loyal, NKB]
[08/20/2024 22:40]  Sir Digsalot: Sir Digsalot
[08/20/2024 22:40]  oppla: oppla (Young)
[08/20/2024 22:41]  Tessie Gatherer: An Lor Xen
[08/20/2024 22:41]  Tessie Gatherer: An Lor Xen
[08/20/2024 22:41]  System: Your campfire is now secure.
[08/20/2024 22:41]  Tessie Gatherer: An Lor Xen
[08/20/2024 22:41]  Warner the Watch: *area taunt*
[08/20/2024 22:41]  Tessie Gatherer: An Lor Xen
[08/20/2024 22:41]  oppla: An Lor Xen
[08/20/2024 22:41]  Warner the Watch: Be thou blessed by the Virtues
[08/20/2024 22:41]  Tessie Gatherer: An Lor Xen
[08/20/2024 22:41]  oppla: oppla (Young)
[08/20/2024 22:41]  Tessie Gatherer: An Lor Xen
[08/20/2024 22:41]  Tessie Gatherer: An Lor Xen
[08/20/2024 22:41]  Tessie Gatherer: Tessie Gatherer (Young)
[08/20/2024 22:41]  FastandCurious: FastandCurious (Young)
[08/20/2024 22:41]  Tessie Gatherer: An Lor Xen
[08/20/2024 22:41]  Sir Digsalot: An Lor Xen
[08/20/2024 22:41]  Elminster Aummar: [Nordico, BRvk]
[08/20/2024 22:41]  Elminster Aummar: Elminster Aummar
[08/20/2024 22:41]  Tessie Gatherer: An Lor Xen
[08/20/2024 22:41]  Twiglett: Twiglett (Young)
[08/20/2024 22:41]  Sir Digsalot: [Loyal, NKB]
[08/20/2024 22:41]  Sir Digsalot: Sir Digsalot
[08/20/2024 22:41]  Elminster Aummar: Vas Flam
[08/20/2024 22:41]  Tessie Gatherer: An Lor Xen
[08/20/2024 22:41]  oppla: An Lor Xen
[08/20/2024 22:41]  Tessie Gatherer: An Lor Xen
[08/20/2024 22:41]  Elminster Aummar: Vas Flam
[08/20/2024 22:41]  oppla: oppla (Young)
[08/20/2024 22:41]  Chimmy: Transmuter
[08/20/2024 22:41]  Chimmy: Chimmy
[08/20/2024 22:41]  Warner the Watch: *area taunt*
[08/20/2024 22:41]  Tessie Gatherer: An Lor Xen
[08/20/2024 22:41]  Tessie Gatherer: An Lor Xen
[08/20/2024 22:41]  Twiglett: Por Ort Grav
[08/20/2024 22:41]  Elminster Aummar: Vas Flam
[08/20/2024 22:41]  Tessie Gatherer: An Lor Xen
[08/20/2024 22:41]  Twiglett: Por Ort Grav
[08/20/2024 22:41]  Elminster Aummar: In Por Ylem
[08/20/2024 22:41]  Twiglett: Por Ort Grav
[08/20/2024 22:41]  Tessie Gatherer: An Lor Xen
[08/20/2024 22:41]  Twiglett: Por Ort Grav
[08/20/2024 22:41]  oppla: An Lor Xen
[08/20/2024 22:41]  UlfrikStabson: UlfrikStabson (Young)
[08/20/2024 22:41]  a wounded harpy: a wounded harpy
[08/20/2024 22:41]  Tessie Gatherer: An Lor Xen
[08/20/2024 22:41]  Ashley Stabah: Ashley Stabah
[08/20/2024 22:41]  Twiglett: Por Ort Grav
[08/20/2024 22:41]  Tessie Gatherer: An Lor Xen
[08/20/2024 22:41]  FastandCurious: FastandCurious (Young)
[08/20/2024 22:41]  Twiglett: Por Ort Grav
[08/20/2024 22:41]  oppla: An Lor Xen
[08/20/2024 22:41]  Tessie Gatherer: An Lor Xen
[08/20/2024 22:41]  Sir Digsalot: An Lor Xen
[08/20/2024 22:41]  Nancy.J.M: Nancy.J.M (Young)
[08/20/2024 22:41]  Twiglett: Por Ort Grav
[08/20/2024 22:41]  oppla: An Lor Xen
[08/20/2024 22:41]  Twiglett: Por Ort Grav
[08/20/2024 22:41]  Tessie Gatherer: An Lor Xen
[08/20/2024 22:41]  Sir Digsalot: [Loyal, NKB]
[08/20/2024 22:41]  Sir Digsalot: Sir Digsalot
[08/20/2024 22:41]  Krogu: An Lor Xen
[08/20/2024 22:41]  Warner the Watch: *area taunt*
[08/20/2024 22:41]  Twiglett: In Vas Mani
[08/20/2024 22:41]  Tessie Gatherer: An Lor Xen
[08/20/2024 22:41]  oppla: oppla (Young)
[08/20/2024 22:41]  Nancy.J.M: Nancy.J.M (Young)
[08/20/2024 22:41]  Krogu: An Lor Xen
[08/20/2024 22:41]  a giant rat: a giant rat
[08/20/2024 22:41]  Tessie Gatherer: An Lor Xen
[08/20/2024 22:41]  Tessie Gatherer: Tessie Gatherer (Young)
[08/20/2024 22:41]  Krogu: An Lor Xen
[08/20/2024 22:41]  Tessie Gatherer: An Lor Xen
[08/20/2024 22:41]  oppla: An Lor Xen
[08/20/2024 22:41]  Krogu: An Lor Xen
[08/20/2024 22:41]  Tessie Gatherer: An Lor Xen
[08/20/2024 22:41]  You see: a mongbat corpse
[08/20/2024 22:41]  Krogu: An Lor Xen
[08/20/2024 22:41]  Krogu: Krogu (Young)
[08/20/2024 22:41]  Tessie Gatherer: An Lor Xen
[08/20/2024 22:41]  Tessie Gatherer: Tessie Gatherer (Young)
[08/20/2024 22:41]  oppla: oppla (Young)
[08/20/2024 22:41]  UlfrikStabson: UlfrikStabson (Young)
[08/20/2024 22:41]  Krogu: An Lor Xen
[08/20/2024 22:41]  Tessie Gatherer: An Lor Xen
[08/20/2024 22:41]  Fis: Fis
[08/20/2024 22:41]  Krogu: An Lor Xen
[08/20/2024 22:41]  Krogu: Krogu (Young)
[08/20/2024 22:41]  Tessie Gatherer: An Lor Xen
[08/20/2024 22:41]  You see: a giant rat corpse
[08/20/2024 22:42]  Krogu: An Lor Xen
[08/20/2024 22:42]  Krogu: Krogu (Young)
[08/20/2024 22:42]  Tessie Gatherer: An Lor Xen
[08/20/2024 22:42]  Tessie Gatherer: Tessie Gatherer (Young)
[08/20/2024 22:42]  Warner the Watch: *area taunt*
[08/20/2024 22:42]  Sir Digsalot: An Lor Xen
[08/20/2024 22:42]  You see: a wounded harpy corpse
[08/20/2024 22:42]  Krogu: An Lor Xen
[08/20/2024 22:42]  Krogu: Krogu (Young)
[08/20/2024 22:42]  Tessie Gatherer: An Lor Xen
[08/20/2024 22:42]  a mongbat: a mongbat
[08/20/2024 22:42]  oppla: An Lor Xen
[08/20/2024 22:42]  Sir Digsalot: [Loyal, NKB]
[08/20/2024 22:42]  Sir Digsalot: Sir Digsalot
[08/20/2024 22:42]  Krogu: An Lor Xen
[08/20/2024 22:42]  Krogu: Krogu (Young)
[08/20/2024 22:42]  Tessie Gatherer: Tessie Gatherer (Young)
[08/20/2024 22:42]  Krogu: An Lor Xen
[08/20/2024 22:42]  Krogu: Krogu (Young)
[08/20/2024 22:42]  oppla: An Lor Xen
[08/20/2024 22:42]  oppla: oppla (Young)
[08/20/2024 22:42]  Ashley Stabah: Ashley Stabah
[08/20/2024 22:42]  a mongbat: a mongbat
[08/20/2024 22:42]  You see: a mongbat corpse
[08/20/2024 22:42]  Krogu: Krogu (Young)
[08/20/2024 22:42]  oppla: oppla (Young)
[08/20/2024 22:42]  Nancy.J.M: Nancy.J.M (Young)
[08/20/2024 22:42]  FastandCurious: FastandCurious (Young)
[08/20/2024 22:42]  Mattss: Mattss
[08/20/2024 22:42]  oppla: An Lor Xen
[08/20/2024 22:42]  Warner the Watch: *area taunt*
[08/20/2024 22:42]  You see: a mongbat corpse
[08/20/2024 22:42]  You see: a giant rat corpse
[08/20/2024 22:42]  oppla: oppla (Young)
[08/20/2024 22:42]  Sir Digsalot: An Lor Xen
[08/20/2024 22:42]  Sir Digsalot: [Loyal, NKB]
[08/20/2024 22:42]  Sir Digsalot: Sir Digsalot
[08/20/2024 22:42]  You see: a mongbat corpse
[08/20/2024 22:42]  oppla: An Lor Xen
[08/20/2024 22:42]  FastandCurious: FastandCurious (Young)
[08/20/2024 22:42]  oppla: oppla (Young)
[08/20/2024 22:42]  Twiglett: Por Ort Grav
[08/20/2024 22:42]  Twiglett: Por Ort Grav
[08/20/2024 22:42]  Warner the Watch: *area taunt*
[08/20/2024 22:42]  Twiglett: Por Ort Grav
[08/20/2024 22:42]  Twiglett: Por Ort Grav
[08/20/2024 22:42]  Twiglett: Por Ort Grav
[08/20/2024 22:42]  Tessie Gatherer: An Lor Xen
[08/20/2024 22:42]  Twiglett: Por Ort Grav
[08/20/2024 22:42]  Sir Digsalot: An Lor Xen
[08/20/2024 22:42]  oppla: An Lor Xen
[08/20/2024 22:42]  Tessie Gatherer: An Lor Xen
[08/20/2024 22:42]  Tessie Gatherer: Tessie Gatherer (Young)
[08/20/2024 22:42]  Twiglett: Por Ort Grav
[08/20/2024 22:42]  Twiglett: Por Ort Grav
[08/20/2024 22:42]  Tessie Gatherer: An Lor Xen
[08/20/2024 22:42]  Sir Digsalot: [Loyal, NKB]
[08/20/2024 22:42]  Sir Digsalot: Sir Digsalot
[08/20/2024 22:42]  oppla: An Lor Xen
[08/20/2024 22:42]  Twiglett: Por Ort Grav
[08/20/2024 22:42]  System: Rainardo Idricci has completed the achievement: Enhanced (Basic).
[08/20/2024 22:42]  Tessie Gatherer: An Lor Xen
[08/20/2024 22:42]  Tessie Gatherer: Tessie Gatherer (Young)
[08/20/2024 22:42]  Twiglett: Por Ort Grav
[08/20/2024 22:42]  oppla: oppla (Young)
[08/20/2024 22:42]  Tessie Gatherer: An Lor Xen
[08/20/2024 22:42]  Tessie Gatherer: Tessie Gatherer (Young)
[08/20/2024 22:42]  Twiglett: Por Ort Grav
[08/20/2024 22:42]  FastandCurious: FastandCurious (Young)
[08/20/2024 22:42]  Tessie Gatherer: Tessie Gatherer (Young)
[08/20/2024 22:42]  Twiglett: In Vas Mani
[08/20/2024 22:42]  Warner the Watch: *area taunt*
[08/20/2024 22:42]  Twiglett: Por Ort Grav
[08/20/2024 22:42]  Vinklander: Vinklander (Young)
[08/20/2024 22:42]  Twiglett: Por Ort Grav
[08/20/2024 22:43]  oppla: An Lor Xen
[08/20/2024 22:43]  oppla: oppla (Young)
[08/20/2024 22:43]  Chimmy: Transmuter
[08/20/2024 22:43]  Chimmy: Chimmy
[08/20/2024 22:43]  Sir Digsalot: An Lor Xen
[08/20/2024 22:43]  Sir Digsalot: [Loyal, NKB]
[08/20/2024 22:43]  Sir Digsalot: Sir Digsalot
[08/20/2024 22:43]  oppla: An Lor Xen
[08/20/2024 22:43]  Warner the Watch: *area taunt*
[08/20/2024 22:43]  oppla: oppla (Young)
[08/20/2024 22:43]  oppla: An Lor Xen
[08/20/2024 22:43]  FastandCurious: FastandCurious (Young)
[08/20/2024 22:43]  Krogu: An Lor Xen
[08/20/2024 22:43]  Sir Digsalot: An Lor Xen
[08/20/2024 22:43]  oppla: An Lor Xen
[08/20/2024 22:43]  Krogu: An Lor Xen
[08/20/2024 22:43]  Krogu: Krogu (Young)
[08/20/2024 22:43]  Sir Digsalot: [Loyal, NKB]
[08/20/2024 22:43]  Sir Digsalot: Sir Digsalot
[08/20/2024 22:43]  Krogu: An Lor Xen
[08/20/2024 22:43]  Krogu: Krogu (Young)
[08/20/2024 22:43]  Warner the Watch: *area taunt*
[08/20/2024 22:43]  oppla: An Lor Xen
[08/20/2024 22:43]  Krogu: An Lor Xen
[08/20/2024 22:43]  Krogu: Krogu (Young)
[08/20/2024 22:43]  oppla: An Lor Xen
[08/20/2024 22:43]  Krogu: An Lor Xen
[08/20/2024 22:43]  Tessie Gatherer: An Lor Xen
[08/20/2024 22:43]  Warner the Watch: If ever in need of aid, see thee the Knights Guild
[08/20/2024 22:43]  oppla: oppla (Young)
[08/20/2024 22:43]  Krogu: An Lor Xen
[08/20/2024 22:43]  Krogu: Krogu (Young)
[08/20/2024 22:43]  Mattss: Mattss
[08/20/2024 22:43]  Tessie Gatherer: An Lor Xen
[08/20/2024 22:43]  Tessie Gatherer: Tessie Gatherer (Young)
[08/20/2024 22:43]  Krogu: Krogu (Young)
[08/20/2024 22:43]  Tessie Gatherer: An Lor Xen
[08/20/2024 22:43]  oppla: An Lor Xen
[08/20/2024 22:43]  Tessie Gatherer: An Lor Xen
[08/20/2024 22:43]  Twiglett: Por Ort Grav
[08/20/2024 22:43]  oppla: An Lor Xen
[08/20/2024 22:43]  Twiglett: Por Ort Grav
[08/20/2024 22:43]  Tessie Gatherer: An Lor Xen
[08/20/2024 22:43]  Mattss: Mattss
[08/20/2024 22:43]  a wounded harpy: a wounded harpy
[08/20/2024 22:43]  Twiglett: Por Ort Grav
[08/20/2024 22:43]  FastandCurious: FastandCurious (Young)
[08/20/2024 22:43]  BukakkeSaka: Legendary Scribe
[08/20/2024 22:43]  BukakkeSaka: [The Tavern], [tT]
[08/20/2024 22:43]  BukakkeSaka: BukakkeSaka
[08/20/2024 22:43]  Tessie Gatherer: An Lor Xen
[08/20/2024 22:43]  Tessie Gatherer: Tessie Gatherer (Young)
[08/20/2024 22:43]  oppla: An Lor Xen
[08/20/2024 22:43]  Twiglett: In Vas Mani
[08/20/2024 22:43]  Warner the Watch: *area taunt*
[08/20/2024 22:43]  Sir Digsalot: An Lor Xen
[08/20/2024 22:43]  Tessie Gatherer: An Lor Xen
[08/20/2024 22:43]  System: Stealing is not allowed in that location currently.
[08/20/2024 22:43]  oppla: oppla (Young)
[08/20/2024 22:43]  Twiglett: Por Ort Grav
[08/20/2024 22:43]  Sir Digsalot: [Loyal, NKB]
[08/20/2024 22:43]  Sir Digsalot: Sir Digsalot
[08/20/2024 22:43]  Tessie Gatherer: An Lor Xen
[08/20/2024 22:43]  Twiglett: Por Ort Grav
[08/20/2024 22:43]  Tessie Gatherer: An Lor Xen
[08/20/2024 22:43]  Tessie Gatherer: An Lor Xen
[08/20/2024 22:43]  Tessie Gatherer: Tessie Gatherer (Young)
[08/20/2024 22:44]  oppla: An Lor Xen
[08/20/2024 22:44]  Tessie Gatherer: An Lor Xen
[08/20/2024 22:44]  Tessie Gatherer: An Lor Xen
[08/20/2024 22:44]  Tessie Gatherer: Tessie Gatherer (Young)
[08/20/2024 22:44]  oppla: oppla (Young)
[08/20/2024 22:44]  Tessie Gatherer: An Lor Xen
[08/20/2024 22:44]  Tessie Gatherer: An Lor Xen
[08/20/2024 22:44]  Tessie Gatherer: Tessie Gatherer (Young)
[08/20/2024 22:44]  Warner the Watch: *area taunt*
[08/20/2024 22:44]  Tessie Gatherer: Tessie Gatherer (Young)
[08/20/2024 22:44]  Chimmy: Transmuter
[08/20/2024 22:44]  Chimmy: Chimmy
[08/20/2024 22:44]  Sir Digsalot: An Lor Xen
[08/20/2024 22:44]  oppla: An Lor Xen
[08/20/2024 22:44]  Sir Digsalot: [Loyal, NKB]
[08/20/2024 22:44]  Sir Digsalot: Sir Digsalot
[08/20/2024 22:44]  oppla: An Lor Xen
[08/20/2024 22:44]  oppla: oppla (Young)
[08/20/2024 22:44]  a sun wyrm: (bonded)
[08/20/2024 22:44]  a sun wyrm: a sun wyrm
[08/20/2024 22:44]  a sun wyrmling: (bonded)
[08/20/2024 22:44]  a sun wyrmling: a sun wyrmling
[08/20/2024 22:44]  Prometeus: [Membro, ITA.]
[08/20/2024 22:44]  Prometeus: Prometeus
[08/20/2024 22:44]  FastandCurious: FastandCurious (Young)
[08/20/2024 22:44]  Prometeus: In Jux Sanct
[08/20/2024 22:44]  oppla: An Lor Xen
[08/20/2024 22:44]  Warner the Watch: *area taunt*
[08/20/2024 22:44]  Sanja: Sanja (Young)
[08/20/2024 22:44]  oppla: An Lor Xen
[08/20/2024 22:44]  oppla: oppla (Young)
[08/20/2024 22:44]  oppla: oppla (Young)
[08/20/2024 22:44]  Twiglett: Por Ort Grav
[08/20/2024 22:44]  Sir Digsalot: An Lor Xen
[08/20/2024 22:44]  Twiglett: Por Ort Grav
[08/20/2024 22:44]  Liriel Baenre: [Henchman, Syn]
[08/20/2024 22:44]  Liriel Baenre: Liriel Baenre
[08/20/2024 22:44]  Sir Digsalot: [Loyal, NKB]
[08/20/2024 22:44]  Sir Digsalot: Sir Digsalot
[08/20/2024 22:44]  Twiglett: Por Ort Grav
[08/20/2024 22:44]  Twiglett: In Vas Mani
[08/20/2024 22:44]  oppla: An Lor Xen
[08/20/2024 22:44]  Twiglett: Por Ort Grav
[08/20/2024 22:44]  FastandCurious: FastandCurious (Young)
[08/20/2024 22:44]  Twiglett: Por Ort Grav
[08/20/2024 22:44]  oppla: An Lor Xen
[08/20/2024 22:44]  a mongbat: a mongbat
[08/20/2024 22:44]  Warner the Watch: *area taunt*
[08/20/2024 22:44]  oppla: oppla (Young)
[08/20/2024 22:44]  System: Your campfire is now secure.
[08/20/2024 22:44]  Ashley Stabah: Ashley Stabah
[08/20/2024 22:44]  oppla: An Lor Xen
[08/20/2024 22:44]  Tessie Gatherer: An Lor Xen
[08/20/2024 22:44]  You see: a wounded harpy corpse
[08/20/2024 22:44]  Sir Digsalot: An Lor Xen
[08/20/2024 22:44]  Tessie Gatherer: An Lor Xen
[08/20/2024 22:44]  Tessie Gatherer: Tessie Gatherer (Young)
[08/20/2024 22:44]  oppla: oppla (Young)
[08/20/2024 22:45]  Tessie Gatherer: An Lor Xen
[08/20/2024 22:45]  Tessie Gatherer: Tessie Gatherer (Young)
[08/20/2024 22:45]  You see: a mongbat corpse
[08/20/2024 22:45]  Sir Digsalot: An Lor Xen
[08/20/2024 22:45]  Sanja: Sanja (Young)
[08/20/2024 22:45]  Krogu: An Lor Xen
[08/20/2024 22:45]  Tessie Gatherer: An Lor Xen
[08/20/2024 22:45]  Tessie Gatherer: Tessie Gatherer (Young)
[08/20/2024 22:45]  a mongbat: a mongbat
[08/20/2024 22:45]  Sir Digsalot: [Loyal, NKB]
[08/20/2024 22:45]  Sir Digsalot: Sir Digsalot
[08/20/2024 22:45]  System: [SR] A Stygian Rifts event will begin in 15 minutes. Players may sign up in the Arena at the Stygian Rift section of the region. Type [BattleHotbar to view the Battle Hotbar for this event.
[08/20/2024 22:45]  Krogu: An Lor Xen
[08/20/2024 22:45]  Warner the Watch: *area taunt*
[08/20/2024 22:45]  Krogu: Krogu (Young)
[08/20/2024 22:45]  Tessie Gatherer: An Lor Xen
[08/20/2024 22:45]  Tessie Gatherer: Tessie Gatherer (Young)
[08/20/2024 22:45]  Krogu: An Lor Xen
[08/20/2024 22:45]  Krogu: Krogu (Young)
[08/20/2024 22:45]  Tessie Gatherer: Tessie Gatherer (Young)
[08/20/2024 22:45]  oppla: An Lor Xen
[08/20/2024 22:45]  Krogu: An Lor Xen
[08/20/2024 22:45]  Krogu: Krogu (Young)
[08/20/2024 22:45]  Krogu: An Lor Xen
[08/20/2024 22:45]  Krogu: Krogu (Young)
[08/20/2024 22:45]  oppla: An Lor Xen
[08/20/2024 22:45]  Krogu: An Lor Xen
[08/20/2024 22:45]  oppla: oppla (Young)
[08/20/2024 22:45]  Krogu: An Lor Xen
[08/20/2024 22:45]  Krogu: Krogu (Young)
[08/20/2024 22:45]  Gaswalker: Lord Gaswalker
[08/20/2024 22:45]  System: Botttles has completed the achievement: Alchemist (Epic).
[08/20/2024 22:45]  FastandCurious: FastandCurious (Young)
[08/20/2024 22:45]  Krogu: An Lor Xen
[08/20/2024 22:45]  Krogu: Krogu (Young)
[08/20/2024 22:45]  Branyoli: Branyoli (Young)
[08/20/2024 22:45]  Krogu: An Lor Xen
[08/20/2024 22:45]  Sir Digsalot: An Lor Xen
[08/20/2024 22:45]  Warner the Watch: *area taunt*
[08/20/2024 22:45]  oppla: An Lor Xen
[08/20/2024 22:45]  Krogu: Krogu (Young)
[08/20/2024 22:45]  Sir Digsalot: [Loyal, NKB]
[08/20/2024 22:45]  Sir Digsalot: Sir Digsalot
[08/20/2024 22:45]  oppla: An Lor Xen
[08/20/2024 22:45]  oppla: An Lor Xen
[08/20/2024 22:45]  oppla: An Lor Xen
[08/20/2024 22:45]  System: Tempi Twelvyn has completed the achievement: Tailor (Epic).
[08/20/2024 22:45]  System: Your campfire is now secure.
[08/20/2024 22:45]  oppla: oppla (Young)
[08/20/2024 22:45]  Warner the Watch: *area taunt*
[08/20/2024 22:45]  oppla: An Lor Xen
[08/20/2024 22:45]  Sir Digsalot: An Lor Xen
[08/20/2024 22:45]  Sir Digsalot: [Loyal, NKB]
[08/20/2024 22:45]  Sir Digsalot: Sir Digsalot
[08/20/2024 22:45]  oppla: oppla (Young)
[08/20/2024 22:45]  Tessie Gatherer: An Lor Xen
[08/20/2024 22:45]  Vinklander: Vinklander (Young)
[08/20/2024 22:45]  Tessie Gatherer: An Lor Xen
[08/20/2024 22:45]  Tessie Gatherer: An Lor Xen
[08/20/2024 22:45]  Tessie Gatherer: An Lor Xen
[08/20/2024 22:45]  Tessie Gatherer: Tessie Gatherer (Young)
[08/20/2024 22:45]  oppla: An Lor Xen
[08/20/2024 22:45]  Tessie Gatherer: An Lor Xen
[08/20/2024 22:45]  Tessie Gatherer: Tessie Gatherer (Young)
[08/20/2024 22:45]  oppla: oppla (Young)
[08/20/2024 22:45]  Warner the Watch: *area taunt*
[08/20/2024 22:46]  Tessie Gatherer: An Lor Xen
[08/20/2024 22:46]  FastandCurious: FastandCurious (Young)
[08/20/2024 22:46]  Tessie Gatherer: An Lor Xen
[08/20/2024 22:46]  System: What do you wish to pacify? (you may target yourself for an area effect or the ground for a group effect)
[08/20/2024 22:46]  Tessie Gatherer: An Lor Xen
[08/20/2024 22:46]  Tessie Gatherer: Tessie Gatherer (Young)
[08/20/2024 22:46]  Sir Digsalot: An Lor Xen
[08/20/2024 22:46]  System: You are now under the effect of a Song of Peacemaking (4.0% healing amounts for 15 minutes).
[08/20/2024 22:46]  Tessie Gatherer: Tessie Gatherer (Young)
[08/20/2024 22:46]  Sir Digsalot: [Loyal, NKB]
[08/20/2024 22:46]  Sir Digsalot: Sir Digsalot
[08/20/2024 22:46]  System: Allavaro has completed the achievement: Triggered (Basic).
[08/20/2024 22:46]  oppla: An Lor Xen
[08/20/2024 22:46]  a giant bat: a giant bat
[08/20/2024 22:46]  Warner the Watch: The Knights Guild stands ever in the light of Virtue
[08/20/2024 22:46]  Krogu: In Vas Mani
[08/20/2024 22:46]  oppla: oppla (Young)
[08/20/2024 22:46]  System: The world will save in 15 seconds.
[08/20/2024 22:46]  You see: a mongbat corpse
[08/20/2024 22:46]  Vinklander: Vinklander (Young)
[08/20/2024 22:46]  System: You may not loot this corpse.
[08/20/2024 22:46]  System: You may not loot this corpse.
[08/20/2024 22:46]  System: You may not loot this corpse.
[08/20/2024 22:46]  System: You may not loot this corpse.
[08/20/2024 22:46]  System: You may not loot this corpse.
[08/20/2024 22:46]  System: You may not loot this corpse.
[08/20/2024 22:46]  Liriel Baenre: [Henchman, Syn]
[08/20/2024 22:46]  Liriel Baenre: Liriel Baenre
[08/20/2024 22:46]  You see: a mongbat corpse
[08/20/2024 22:46]  You see: a mongbat corpse
[08/20/2024 22:46]  You see: a mongbat corpse
[08/20/2024 22:46]  System: Players cannot commit aggressive actions in that location.
[08/20/2024 22:46]  You see: a mongbat corpse
[08/20/2024 22:46]  You see: a mongbat corpse
[08/20/2024 22:46]  You see: a mongbat corpse
[08/20/2024 22:46]  You see: a mongbat corpse
[08/20/2024 22:46]  You see: a rotting corpse
[08/20/2024 22:46]  Branyoli: Branyoli (Young)
[08/20/2024 22:46]  Nancy.J.M: Nancy.J.M (Young)
[08/20/2024 22:46]  System: Players cannot commit aggressive actions in that location.
[08/20/2024 22:46]  You see: a giant rat corpse
[08/20/2024 22:46]  You see: a mongbat corpse
[08/20/2024 22:46]  You see: a mongbat corpse
[08/20/2024 22:46]  You see: a mongbat corpse
[08/20/2024 22:46]  You see: a mongbat corpse
[08/20/2024 22:46]  You see: the remains of Llewbach
[08/20/2024 22:46]  System: Players cannot commit aggressive actions in that location.
[08/20/2024 22:46]  You see: a giant rat corpse
[08/20/2024 22:46]  You see: a mongbat corpse
[08/20/2024 22:46]  System: Players cannot commit aggressive actions in that location.
[08/20/2024 22:46]  You see: the remains of Sanja
[08/20/2024 22:46]  You see: a mongbat corpse
[08/20/2024 22:46]  You see: a wounded harpy corpse
[08/20/2024 22:46]  a giant rat: a giant rat
[08/20/2024 22:46]  System: Players cannot commit aggressive actions in that location.
[08/20/2024 22:46]  Warner the Watch: *area taunt*
[08/20/2024 22:46]  You see: a wounded harpy corpse
[08/20/2024 22:46]  System: What do you wish to pacify? (you may target yourself for an area effect or the ground for a group effect)
[08/20/2024 22:46]  You see: the remains of Sanja
[08/20/2024 22:46]  You see: a giant bat corpse
[08/20/2024 22:46]  You see: a skeletal corpse
[08/20/2024 22:46]  You see: a headless corpse
[08/20/2024 22:46]  You see: a headless corpse
[08/20/2024 22:46]  a headless: a headless
[08/20/2024 22:46]  System: Opening door...
[08/20/2024 22:46]  You see: a giant frog corpse
[08/20/2024 22:46]  You see: a giant frog corpse
[08/20/2024 22:46]  You see: a colossal frog corpse
[08/20/2024 22:46]  You see: a headless corpse
[08/20/2024 22:46]  a headless: a headless
[08/20/2024 22:46]  You see: a colossal frog corpse
[08/20/2024 22:46]  You see: a corpser corpse
[08/20/2024 22:46]  You see: a giant frog corpse
[08/20/2024 22:46]  a mongbat: a mongbat
[08/20/2024 22:46]  a skeleton: a skeleton
[08/20/2024 22:46]  You see: a mongbat corpse
[08/20/2024 22:46]  Sir Digsalot: [Loyal, NKB]
[08/20/2024 22:46]  Sir Digsalot: Sir Digsalot
[08/20/2024 22:46]  Tessie Gatherer: Tessie Gatherer (Young)
[08/20/2024 22:46]  Ripper: [DTF]
[08/20/2024 22:46]  Ripper: Ripper
[08/20/2024 22:46]  a horse: (tame)
[08/20/2024 22:46]  a horse: a horse
[08/20/2024 22:46]  Krogu: Krogu (Young)
[08/20/2024 22:46]  You see: the remains of Llewbach
[08/20/2024 22:46]  You see: a rotting corpse
[08/20/2024 22:46]  You see: a mongbat corpse
[08/20/2024 22:46]  You see: a mongbat corpse
[08/20/2024 22:46]  You see: a mongbat corpse
[08/20/2024 22:46]  You see: a mongbat corpse
[08/20/2024 22:46]  You see: a mongbat corpse
[08/20/2024 22:46]  a gravebug: (bonded)
[08/20/2024 22:46]  a gravebug: a gravebug
[08/20/2024 22:46]  Warner the Watch: [Knight, Sir.]
[08/20/2024 22:46]  Warner the Watch: Warner the Watch
[08/20/2024 22:46]  Mattss: Mattss
[08/20/2024 22:46]  LeArke: LeArke
[08/20/2024 22:46]  You see: a giant rat corpse
[08/20/2024 22:46]  Vinklander: Vinklander (Young)
[08/20/2024 22:46]  You see: a skeletal corpse
[08/20/2024 22:46]  a skeleton: a skeleton
[08/20/2024 22:46]  You see: a giant frog corpse
[08/20/2024 22:46]  You see: a giant frog corpse
[08/20/2024 22:46]  You see: a colossal frog corpse
[08/20/2024 22:46]  You see: a headless corpse
[08/20/2024 22:46]  You see: a skeletal corpse
[08/20/2024 22:46]  You see: a skeletal corpse
[08/20/2024 22:46]  a headless: a headless
[08/20/2024 22:46]  a zombie: a zombie
[08/20/2024 22:46]  a zombie: a zombie
[08/20/2024 22:46]  You see: a colossal frog corpse
[08/20/2024 22:46]  You see: a corpser corpse
[08/20/2024 22:46]  You see: a giant frog corpse
[08/20/2024 22:46]  a skeleton: a skeleton
[08/20/2024 22:46]  System: Holy symbols remaining: 5/6
[08/20/2024 22:46]  a scorpion: a scorpion
[08/20/2024 22:46]  a zombie: a zombie
[08/20/2024 22:46]  You see: a giant rat corpse
[08/20/2024 22:46]  a giant rat: a giant rat
[08/20/2024 22:46]  System: The world is saving, please wait.
[08/20/2024 22:46]  System: World save complete. The entire process took 2.5 seconds.
[08/20/2024 22:46]  You see: a giant rat corpse
[08/20/2024 22:46]  You see: a rotting corpse
[08/20/2024 22:46]  You see: a rotting corpse
[08/20/2024 22:46]  You see: a rotting corpse
[08/20/2024 22:46]  a giant rat: a giant rat
[08/20/2024 22:46]  a headless: a headless
[08/20/2024 22:46]  You see: a skeletal corpse
[08/20/2024 22:46]  KatsuYoga: KatsuYoga (Young)
[08/20/2024 22:46]  System: Max holy symbols earned (6/6)
[08/20/2024 22:46]  You see: a giant rat corpse
[08/20/2024 22:46]  You see: the remains of Fis
[08/20/2024 22:46]  You see: the remains of Fis
[08/20/2024 22:46]  You see: a mongbat corpse
[08/20/2024 22:46]  System: Macing skillgain: 13.354%
[08/20/2024 22:46]  System: Tactics skillgain: 16.693%
[08/20/2024 22:46]  System: Anatomy skillgain: 20.034%
[08/20/2024 22:46]  System: ArmsLore skillgain: 20.034%
[08/20/2024 22:46]  System: Focus skillgain: 16.693%
[08/20/2024 22:46]  System: Your skill in Focus has increased by 0.1.  It is now 69.0.
[08/20/2024 22:46]  System: Chivalry skillgain: 13.354%
[08/20/2024 22:46]  a mongbat: -35
[08/20/2024 22:46]  Ailiin: Target: a mongbat
[08/20/2024 22:46]  Razor: Attack: a mongbat
[08/20/2024 22:46]  Razor: Target: a mongbat
[08/20/2024 22:46]  System: You play successfully, pacifying your target. (24s)
[08/20/2024 22:46]  a mongbat: *looks calmed*
[08/20/2024 22:46]  System: Macing skillgain: 13.282%
[08/20/2024 22:46]  System: Tactics skillgain: 16.603%
[08/20/2024 22:46]  System: Anatomy skillgain: 19.926%
[08/20/2024 22:46]  System: ArmsLore skillgain: 19.926%
[08/20/2024 22:46]  System: Focus skillgain: 16.603%
[08/20/2024 22:46]  System: Chivalry skillgain: 13.282%
[08/20/2024 22:46]  System: Your skill in Chivalry has increased by 0.1.  It is now 71.0.
[08/20/2024 22:46]  a mongbat: -37
[08/20/2024 22:46]  Ailiin: Target: a mongbat
[08/20/2024 22:46]  Razor: Attack: a mongbat
[08/20/2024 22:46]  System: Macing skillgain: 13.282%
[08/20/2024 22:46]  System: Tactics skillgain: 16.603%
[08/20/2024 22:46]  System: Anatomy skillgain: 19.926%
[08/20/2024 22:46]  System: Your skill in Anatomy has increased by 0.1.  It is now 73.0.
[08/20/2024 22:46]  System: ArmsLore skillgain: 19.926%
[08/20/2024 22:46]  System: Focus skillgain: 16.603%
[08/20/2024 22:46]  System: Chivalry skillgain: 13.282%
[08/20/2024 22:46]  a mongbat: -40
[08/20/2024 22:46]  Tamacer: Tamacer
[08/20/2024 22:46]  Daikin: (bonded)
[08/20/2024 22:46]  Daikin: Daikin
[08/20/2024 22:46]  Ranasapo: (bonded)
[08/20/2024 22:46]  Ranasapo: Ranasapo
[08/20/2024 22:46]  System: Macing skillgain: 13.282%
[08/20/2024 22:46]  System: Tactics skillgain: 16.603%
[08/20/2024 22:46]  System: Anatomy skillgain: 19.926%
[08/20/2024 22:46]  System: Your skill in Anatomy has increased by 0.1.  It is now 73.1.
[08/20/2024 22:46]  System: ArmsLore skillgain: 19.926%
[08/20/2024 22:46]  System: Your skill in Arms Lore has increased by 0.1.  It is now 73.8.
[08/20/2024 22:46]  System: Focus skillgain: 16.603%
[08/20/2024 22:46]  System: Chivalry skillgain: 13.282%
[08/20/2024 22:46]  a mongbat: -24
[08/20/2024 22:46]  a mongbat: a mongbat
[08/20/2024 22:46]  System: Macing skillgain: 13.282%
[08/20/2024 22:46]  System: Tactics skillgain: 16.603%
[08/20/2024 22:46]  System: Anatomy skillgain: 19.926%
[08/20/2024 22:46]  System: ArmsLore skillgain: 19.926%
[08/20/2024 22:46]  System: Your skill in Arms Lore has increased by 0.1.  It is now 73.9.
[08/20/2024 22:46]  System: Focus skillgain: 16.603%
[08/20/2024 22:46]  System: Chivalry skillgain: 13.282%
[08/20/2024 22:46]  System: Your skill in Chivalry has increased by 0.1.  It is now 71.1.
[08/20/2024 22:46]  a mongbat: -44
[08/20/2024 22:46]  System: Macing skillgain: 13.282%
[08/20/2024 22:46]  System: Tactics skillgain: 16.603%
[08/20/2024 22:46]  System: Anatomy skillgain: 19.926%
[08/20/2024 22:46]  System: Your skill in Anatomy has increased by 0.1.  It is now 73.2.
[08/20/2024 22:46]  System: ArmsLore skillgain: 19.926%
[08/20/2024 22:46]  System: Focus skillgain: 16.603%
[08/20/2024 22:46]  System: Chivalry skillgain: 13.282%
[08/20/2024 22:46]  System: You have gained a little fame.
[08/20/2024 22:46]  System: You have gained a little karma.
[08/20/2024 22:46]  System: -20
[08/20/2024 22:46]  You see: a mongbat corpse
[08/20/2024 22:46]  You see: a giant rat corpse
[08/20/2024 22:46]  System: You may not loot this corpse.
[08/20/2024 22:46]  System: Players cannot commit aggressive actions in that location.
[08/20/2024 22:46]  You see: the remains of Fis
[08/20/2024 22:46]  You see: the remains of Fis
[08/20/2024 22:46]  System: You may not loot this corpse.
[08/20/2024 22:46]  System: Players cannot commit aggressive actions in that location.
[08/20/2024 22:46]  System: You must wait a few moments before you may provoke or pacify another creature.
[08/20/2024 22:46]  System: What do you wish to pacify? (you may target yourself for an area effect or the ground for a group effect)
[08/20/2024 22:46]  Ailiin: -9
[08/20/2024 22:46]  You see: a rotting corpse
[08/20/2024 22:46]  You see: a mongbat corpse
[08/20/2024 22:46]  You see: a rotting corpse
[08/20/2024 22:46]  a zombie: a zombie
[08/20/2024 22:46]  a zombie: a zombie
[08/20/2024 22:46]  FastandCurious: FastandCurious (Young)
[08/20/2024 22:46]  Chicco Gatto: Alchemist
[08/20/2024 22:46]  Chicco Gatto: [Normal Progressing, -_-]
[08/20/2024 22:46]  Chicco Gatto: Lord Chicco Gatto
[08/20/2024 22:46]  Rolen: Rolen
[08/20/2024 22:46]  a zombie: a zombie
[08/20/2024 22:46]  You see: a mongbat corpse
[08/20/2024 22:46]  Vinklander: Vinklander (Young)
[08/20/2024 22:46]  LeArke: LeArke
[08/20/2024 22:46]  Apex Apox Aprix: Apex Apox Aprix (Young)
[08/20/2024 22:46]  You see: a mongbat corpse
[08/20/2024 22:46]  Krogu: Krogu (Young)
[08/20/2024 22:46]  You see: a mongbat corpse
[08/20/2024 22:46]  You see: a mongbat corpse
[08/20/2024 22:46]  an undead miner: an undead miner (Young)
[08/20/2024 22:46]  System: Holy symbols remaining: 5/6
[08/20/2024 22:46]  Ailiin: -19
[08/20/2024 22:46]  Razor: Target: Ailiin
[08/20/2024 22:46]  a scorpion: *looks calmed*
[08/20/2024 22:46]  a giant rat: *looks calmed*
[08/20/2024 22:46]  a giant rat: *looks calmed*
[08/20/2024 22:46]  a zombie: *looks calmed*
[08/20/2024 22:46]  System: You play successfully, briefly pacifying one or more nearby creatures.
[08/20/2024 22:46]  Ailiin: Target: a zombie
[08/20/2024 22:46]  Razor: Attack: a zombie
[08/20/2024 22:46]  System: Macing skillgain: 13.354%
[08/20/2024 22:46]  System: Tactics skillgain: 16.693%
[08/20/2024 22:46]  System: Anatomy skillgain: 20.034%
[08/20/2024 22:46]  System: ArmsLore skillgain: 20.034%
[08/20/2024 22:46]  System: Focus skillgain: 16.693%
[08/20/2024 22:46]  System: Chivalry skillgain: 13.354%
[08/20/2024 22:46]  a zombie: -36
[08/20/2024 22:47]  System: Macing skillgain: 13.282%
[08/20/2024 22:47]  System: Tactics skillgain: 16.603%
[08/20/2024 22:47]  System: Anatomy skillgain: 19.926%
[08/20/2024 22:47]  System: Your skill in Anatomy has increased by 0.1.  It is now 73.3.
[08/20/2024 22:47]  System: ArmsLore skillgain: 19.926%
[08/20/2024 22:47]  System: Focus skillgain: 16.603%
[08/20/2024 22:47]  System: Chivalry skillgain: 13.282%
[08/20/2024 22:47]  a zombie: -27
[08/20/2024 22:47]  Branyoli: Branyoli (Young)
[08/20/2024 22:47]  System: Macing skillgain: 13.282%
[08/20/2024 22:47]  System: Tactics skillgain: 16.603%
[08/20/2024 22:47]  System: Anatomy skillgain: 19.926%
[08/20/2024 22:47]  System: ArmsLore skillgain: 19.926%
[08/20/2024 22:47]  System: Focus skillgain: 16.603%
[08/20/2024 22:47]  System: Your skill in Focus has increased by 0.1.  It is now 69.1.
[08/20/2024 22:47]  System: Chivalry skillgain: 13.282%
[08/20/2024 22:47]  Ailiin: -17
[08/20/2024 22:47]  a zombie: -26
[08/20/2024 22:47]  You see: a rotting corpse
[08/20/2024 22:47]  System: Max holy symbols earned (6/6)
[08/20/2024 22:47]  System: Macing skillgain: 13.354%
[08/20/2024 22:47]  System: Tactics skillgain: 16.693%
[08/20/2024 22:47]  System: Your skill in Tactics has increased by 0.1.  It is now 69.6.
[08/20/2024 22:47]  System: Anatomy skillgain: 20.034%
[08/20/2024 22:47]  System: ArmsLore skillgain: 20.034%
[08/20/2024 22:47]  System: Focus skillgain: 16.693%
[08/20/2024 22:47]  System: Chivalry skillgain: 13.354%
[08/20/2024 22:47]  a zombie: -29
[08/20/2024 22:47]  Ailiin: Ailiin (Young)
[08/20/2024 22:47]  System: Macing skillgain: 13.282%
[08/20/2024 22:47]  System: Tactics skillgain: 16.603%
[08/20/2024 22:47]  System: Anatomy skillgain: 19.926%
[08/20/2024 22:47]  System: ArmsLore skillgain: 19.926%
[08/20/2024 22:47]  System: Focus skillgain: 16.603%
[08/20/2024 22:47]  System: Chivalry skillgain: 13.282%
[08/20/2024 22:47]  System: Your skill in Chivalry has increased by 0.1.  It is now 71.2.
[08/20/2024 22:47]  KatsuYoga: KatsuYoga (Young)
[08/20/2024 22:47]  System: Macing skillgain: 13.282%
[08/20/2024 22:47]  System: Tactics skillgain: 16.603%
[08/20/2024 22:47]  System: Anatomy skillgain: 19.926%
[08/20/2024 22:47]  System: ArmsLore skillgain: 19.926%
[08/20/2024 22:47]  System: Focus skillgain: 16.603%
[08/20/2024 22:47]  System: Chivalry skillgain: 13.282%
[08/20/2024 22:47]  a zombie: -33
[08/20/2024 22:47]  FastandCurious: FastandCurious (Young)
[08/20/2024 22:47]  System: Skillgain chances will no longer be displayed.
[08/20/2024 22:47]  a zombie: -32
[08/20/2024 22:47]  Vinklander: Vinklander (Young)
[08/20/2024 22:47]  System: You smash the unprotected target, dealing significant damage!
[08/20/2024 22:47]  a zombie: -99
[08/20/2024 22:47]  a skeleton: a skeleton
[08/20/2024 22:47]  System: Your skill in Mace Fighting has increased by 0.1.  It is now 72.3.
[08/20/2024 22:47]  a zombie: -51
[08/20/2024 22:47]  Ailiin: -19
[08/20/2024 22:47]  KatsuYoga: KatsuYoga (Young)
[08/20/2024 22:47]  System: Your skill in Anatomy has increased by 0.1.  It is now 73.4.
[08/20/2024 22:47]  System: Your skill in Focus has increased by 0.1.  It is now 69.2.
[08/20/2024 22:47]  a zombie: -53
[08/20/2024 22:47]  a zombie: -45
[08/20/2024 22:47]  System: What do you wish to pacify? (you may target yourself for an area effect or the ground for a group effect)
[08/20/2024 22:47]  BukakkeSaka: Legendary Scribe
[08/20/2024 22:47]  BukakkeSaka: [The Tavern], [tT]
[08/20/2024 22:47]  BukakkeSaka: BukakkeSaka
[08/20/2024 22:47]  a giant rat: *looks calmed*
[08/20/2024 22:47]  a zombie: *looks calmed*
[08/20/2024 22:47]  System: You play successfully, briefly pacifying one or more nearby creatures.
[08/20/2024 22:47]  System: You have gained a little fame.
[08/20/2024 22:47]  System: You have gained a little karma.
[08/20/2024 22:47]  System: -51
[08/20/2024 22:47]  You see: a rotting corpse
[08/20/2024 22:47]  a skeleton: a skeleton
[08/20/2024 22:47]  You see: a giant rat corpse
[08/20/2024 22:47]  You see: a giant rat corpse
[08/20/2024 22:47]  System: Holy symbols remaining: 5/6
[08/20/2024 22:47]  FastandCurious: FastandCurious (Young)
[08/20/2024 22:47]  a giant bat: a giant bat
[08/20/2024 22:47]  System: Max holy symbols earned (6/6)
[08/20/2024 22:47]  Natharo: Natharo
[08/20/2024 22:47]  Tamacer: All Follow Me
[08/20/2024 22:47]  a zombie: a zombie
[08/20/2024 22:47]  Tamacer: All Kill
[08/20/2024 22:47]  IronBrew: IronBrew (Young)
[08/20/2024 22:47]  a mongbat: a mongbat
[08/20/2024 22:47]  You see: a rotting corpse
[08/20/2024 22:47]  Tamacer: * Tamacer stumbles around in confusion and pain. *
[08/20/2024 22:47]  FastandCurious: FastandCurious (Young)
[08/20/2024 22:47]  Tamacer: All Guard Me
[08/20/2024 22:47]  Tamacer: * Tamacer stumbles around in confusion and pain. *
[08/20/2024 22:47]  a mongbat: a mongbat
[08/20/2024 22:47]  You see: a rotting corpse
[08/20/2024 22:47]  System: Players cannot commit aggressive actions in that location.
[08/20/2024 22:47]  System: Players cannot commit aggressive actions in that location.
[08/20/2024 22:47]  System: Players cannot commit aggressive actions in that location.
[08/20/2024 22:47]  a zombie: a zombie
[08/20/2024 22:47]  System: Players cannot commit aggressive actions in that location.
[08/20/2024 22:47]  System: Players cannot commit aggressive actions in that location.
[08/20/2024 22:47]  System: Players cannot commit aggressive actions in that location.
[08/20/2024 22:47]  System: Players cannot commit aggressive actions in that location.
[08/20/2024 22:47]  System: Players cannot commit aggressive actions in that location.
[08/20/2024 22:47]  System: Players cannot commit aggressive actions in that location.
[08/20/2024 22:47]  System: Players cannot commit aggressive actions in that location.
[08/20/2024 22:47]  System: Players cannot commit aggressive actions in that location.
[08/20/2024 22:47]  System: Players cannot commit aggressive actions in that location.
[08/20/2024 22:47]  System: Players cannot commit aggressive actions in that location.
[08/20/2024 22:47]  System: Players cannot commit aggressive actions in that location.
[08/20/2024 22:47]  System: Players cannot commit aggressive actions in that location.
[08/20/2024 22:47]  System: Players cannot commit aggressive actions in that location.
[08/20/2024 22:47]  System: Players cannot commit aggressive actions in that location.
[08/20/2024 22:47]  System: Players cannot commit aggressive actions in that location.
[08/20/2024 22:47]  System: Players cannot commit aggressive actions in that location.
[08/20/2024 22:47]  a zombie: a zombie
[08/20/2024 22:47]  System: Players cannot commit aggressive actions in that location.
[08/20/2024 22:47]  a skeleton: a skeleton
[08/20/2024 22:47]  You see: the remains of Llewbach
[08/20/2024 22:47]  System: You may not loot this corpse.
[08/20/2024 22:47]  You see: a skeletal corpse
[08/20/2024 22:47]  System: You may not loot this corpse.
[08/20/2024 22:47]  You see: a skeletal corpse
[08/20/2024 22:47]  System: You may not loot this corpse.
[08/20/2024 22:47]  Ailiin: Target: a zombie
[08/20/2024 22:47]  Razor: Attack: a zombie
[08/20/2024 22:47]  System: Players cannot commit aggressive actions in that location.
[08/20/2024 22:47]  System: You may not loot this corpse.
[08/20/2024 22:47]  System: What do you wish to pacify? (you may target yourself for an area effect or the ground for a group effect)
[08/20/2024 22:47]  System: Holy symbols remaining: 5/6
[08/20/2024 22:47]  System: Holy symbols remaining: 4/6
[08/20/2024 22:47]  a zombie: *looks calmed*
[08/20/2024 22:47]  System: You play successfully, briefly pacifying one or more nearby creatures.
[08/20/2024 22:47]  System: Holy symbols remaining: 2/6
[08/20/2024 22:48]  System: Your skill in Anatomy has increased by 0.1.  It is now 73.5.
[08/20/2024 22:48]  a zombie: -39
[08/20/2024 22:48]  System: Players cannot commit aggressive actions in that location.
[08/20/2024 22:48]  System: Players cannot commit aggressive actions in that location.
[08/20/2024 22:48]  System: Holy symbols remaining: 0/6
[08/20/2024 22:48]  System: Your skill in Anatomy has increased by 0.1.  It is now 73.6.
[08/20/2024 22:48]  Ailiin: -11
[08/20/2024 22:48]  a zombie: -36
[08/20/2024 22:48]  You see: a giant rat corpse
[08/20/2024 22:48]  System: Players cannot commit aggressive actions in that location.
[08/20/2024 22:48]  System: Players cannot commit aggressive actions in that location.
[08/20/2024 22:48]  System: You may not loot this corpse.
[08/20/2024 22:48]  You see: a skeletal corpse
[08/20/2024 22:48]  System: You must wait a few moments to use another skill.
[08/20/2024 22:48]  System: Players cannot commit aggressive actions in that location.
[08/20/2024 22:48]  System: Players cannot commit aggressive actions in that location.
[08/20/2024 22:48]  System: You may not loot this corpse.
[08/20/2024 22:48]  System: Your skill in Focus has increased by 0.1.  It is now 69.3.
[08/20/2024 22:48]  a zombie: -34
[08/20/2024 22:48]  System: You must wait a few moments before you may provoke or pacify another creature.
[08/20/2024 22:48]  Ailiin: -12
[08/20/2024 22:48]  System: Your skill in Focus has increased by 0.1.  It is now 69.4.
[08/20/2024 22:48]  a zombie: -33
[08/20/2024 22:48]  Tamacer: Tamacer
[08/20/2024 22:48]  Daikin: (bonded)
[08/20/2024 22:48]  Daikin: Daikin
[08/20/2024 22:48]  Ranasapo: (bonded)
[08/20/2024 22:48]  Ranasapo: Ranasapo
[08/20/2024 22:48]  You see: the remains of Llewbach
[08/20/2024 22:48]  You see: a rotting corpse
[08/20/2024 22:48]  System: Players cannot commit aggressive actions in that location.
[08/20/2024 22:48]  System: You may not loot this corpse.
[08/20/2024 22:48]  You see: a mongbat corpse
[08/20/2024 22:48]  You see: a scorpion corpse
[08/20/2024 22:48]  System: You may not loot this corpse.
[08/20/2024 22:48]  System: You must wait a few moments before you may provoke or pacify another creature.
[08/20/2024 22:48]  You see: a rotting corpse
[08/20/2024 22:48]  System: You may not loot this corpse.
[08/20/2024 22:48]  System: Your skill in Focus has increased by 0.1.  It is now 69.5.
[08/20/2024 22:48]  a zombie: -35
[08/20/2024 22:48]  System: You may not loot this corpse.
[08/20/2024 22:48]  You see: a mongbat corpse
[08/20/2024 22:48]  a mongbat: a mongbat
[08/20/2024 22:48]  IronBrew: IronBrew (Young)
[08/20/2024 22:48]  Rolen: Rolen
[08/20/2024 22:48]  BukakkeSaka: Legendary Scribe
[08/20/2024 22:48]  BukakkeSaka: [The Tavern], [tT]
[08/20/2024 22:48]  BukakkeSaka: BukakkeSaka
[08/20/2024 22:48]  System: Players cannot commit aggressive actions in that location.
[08/20/2024 22:48]  Ashley Stabah: Ashley Stabah
[08/20/2024 22:48]  System: Players cannot commit aggressive actions in that location.
[08/20/2024 22:48]  System: Players cannot commit aggressive actions in that location.
[08/20/2024 22:48]  System: Players cannot commit aggressive actions in that location.
[08/20/2024 22:48]  You see: a mongbat corpse
[08/20/2024 22:48]  You see: a mongbat corpse
[08/20/2024 22:48]  You see: a mongbat corpse
[08/20/2024 22:48]  You see: a rotting corpse
[08/20/2024 22:48]  Chicco Gatto: Alchemist
[08/20/2024 22:48]  Chicco Gatto: [Normal Progressing, -_-]
[08/20/2024 22:48]  Chicco Gatto: Lord Chicco Gatto
[08/20/2024 22:48]  System: Players cannot commit aggressive actions in that location.
[08/20/2024 22:48]  System: Players cannot commit aggressive actions in that location.
[08/20/2024 22:48]  System: Players cannot commit aggressive actions in that location.
[08/20/2024 22:48]  System: Players cannot commit aggressive actions in that location.
[08/20/2024 22:48]  System: Players cannot commit aggressive actions in that location.
[08/20/2024 22:48]  System: Players cannot commit aggressive actions in that location.
[08/20/2024 22:48]  System: Players cannot commit aggressive actions in that location.
[08/20/2024 22:48]  You see: a mongbat corpse
[08/20/2024 22:48]  System: Players cannot commit aggressive actions in that location.
[08/20/2024 22:48]  System: Players cannot commit aggressive actions in that location.
[08/20/2024 22:48]  System: Players cannot commit aggressive actions in that location.
[08/20/2024 22:48]  System: Players cannot commit aggressive actions in that location.
[08/20/2024 22:48]  LeArke: LeArke
[08/20/2024 22:48]  Apex Apox Aprix: Apex Apox Aprix (Young)
[08/20/2024 22:48]  System: Players cannot commit aggressive actions in that location.
[08/20/2024 22:48]  System: Players cannot commit aggressive actions in that location.
[08/20/2024 22:48]  System: Players cannot commit aggressive actions in that location.
[08/20/2024 22:48]  a giant rat: a giant rat
[08/20/2024 22:48]  System: Players cannot commit aggressive actions in that location.
[08/20/2024 22:48]  System: Players cannot commit aggressive actions in that location.
[08/20/2024 22:48]  System: Players cannot commit aggressive actions in that location.
[08/20/2024 22:48]  System: Players cannot commit aggressive actions in that location.
[08/20/2024 22:48]  a skeleton: a skeleton
[08/20/2024 22:48]  System: Players cannot commit aggressive actions in that location.
[08/20/2024 22:48]  System: Players cannot commit aggressive actions in that location.
[08/20/2024 22:48]  System: Players cannot commit aggressive actions in that location.
[08/20/2024 22:48]  System: Players cannot commit aggressive actions in that location.
[08/20/2024 22:48]  System: Players cannot commit aggressive actions in that location.
[08/20/2024 22:48]  System: Players cannot commit aggressive actions in that location.
[08/20/2024 22:48]  System: Players cannot commit aggressive actions in that location.
[08/20/2024 22:48]  System: Players cannot commit aggressive actions in that location.
[08/20/2024 22:48]  System: Players cannot commit aggressive actions in that location.
[08/20/2024 22:48]  You see: the remains of Llewbach
[08/20/2024 22:48]  You see: a mongbat corpse
[08/20/2024 22:48]  System: Kadath has completed the achievement: Nature Slayer (Advanced).
[08/20/2024 22:48]  System: Opening door...
[08/20/2024 22:48]  KatsuYoga: KatsuYoga (Young)
[08/20/2024 22:48]  System: Players cannot commit aggressive actions in that location.
[08/20/2024 22:48]  System: Players cannot commit aggressive actions in that location.
[08/20/2024 22:48]  You see: a skeletal corpse
[08/20/2024 22:48]  a skeleton: a skeleton
[08/20/2024 22:48]  System: Players cannot commit aggressive actions in that location.
[08/20/2024 22:48]  System: Players cannot commit aggressive actions in that location.
[08/20/2024 22:48]  You see: a skeletal corpse
[08/20/2024 22:48]  System: Players cannot commit aggressive actions in that location.
[08/20/2024 22:48]  System: Players cannot commit aggressive actions in that location.
[08/20/2024 22:48]  System: Players cannot commit aggressive actions in that location.
[08/20/2024 22:48]  System: Players cannot commit aggressive actions in that location.
[08/20/2024 22:48]  System: Players cannot commit aggressive actions in that location.
[08/20/2024 22:48]  System: Players cannot commit aggressive actions in that location.
[08/20/2024 22:48]  System: Players cannot commit aggressive actions in that location.
[08/20/2024 22:48]  System: Players cannot commit aggressive actions in that location.
[08/20/2024 22:48]  System: Players cannot commit aggressive actions in that location.
[08/20/2024 22:48]  System: Players cannot commit aggressive actions in that location.
[08/20/2024 22:48]  System: What do you wish to pacify? (you may target yourself for an area effect or the ground for a group effect)
[08/20/2024 22:48]  System: Players cannot commit aggressive actions in that location.
[08/20/2024 22:48]  System: Opening door...
[08/20/2024 22:48]  System: Opening door...
[08/20/2024 22:48]  a skeleton: a skeleton
[08/20/2024 22:48]  System: You are now under the effect of a Song of Peacemaking (4.0% healing amounts for 15 minutes).
[08/20/2024 22:48]  System: What do you wish to pacify? (you may target yourself for an area effect or the ground for a group effect)
[08/20/2024 22:48]  Razor: Target: a skeleton
[08/20/2024 22:48]  System: You fail to pacify your opponent. You estimate the task to be easy.
[08/20/2024 22:48]  System: You have gained a little fame.
[08/20/2024 22:48]  System: You have gained a little karma.
[08/20/2024 22:48]  You see: a rotting corpse
[08/20/2024 22:48]  Ailiin: Target: a skeleton
[08/20/2024 22:48]  Razor: Attack: a skeleton
[08/20/2024 22:48]  a skeleton: -39
[08/20/2024 22:48]  System: Your skill in Chivalry has increased by 0.1.  It is now 71.3.
[08/20/2024 22:48]  a skeleton: -38
[08/20/2024 22:48]  System: Your skill in Mace Fighting has increased by 0.1.  It is now 72.4.
[08/20/2024 22:48]  a skeleton: -39
[08/20/2024 22:48]  Ailiin: -15
[08/20/2024 22:48]  System: Tom Crean has completed the achievement: Adventurer Luminary.
[08/20/2024 22:48]  System: What do you wish to pacify? (you may target yourself for an area effect or the ground for a group effect)
[08/20/2024 22:48]  Razor: Target: Ailiin
[08/20/2024 22:48]  a skeleton: *looks calmed*
[08/20/2024 22:48]  System: You play successfully, briefly pacifying one or more nearby creatures.
[08/20/2024 22:48]  System: Your skill in Tactics has increased by 0.1.  It is now 69.7.
[08/20/2024 22:48]  a skeleton: -32
[08/20/2024 22:48]  You see: a rotting corpse
[08/20/2024 22:48]  System: Holy symbols remaining: 4/6
[08/20/2024 22:48]  System: Players cannot commit aggressive actions in that location.
[08/20/2024 22:48]  System: Players cannot commit aggressive actions in that location.
[08/20/2024 22:48]  You see: a headless corpse
[08/20/2024 22:48]  You see: a mongbat corpse
[08/20/2024 22:48]  System: Players cannot commit aggressive actions in that location.
[08/20/2024 22:48]  System: Players cannot commit aggressive actions in that location.
[08/20/2024 22:48]  System: Players cannot commit aggressive actions in that location.
[08/20/2024 22:48]  System: Holy symbols remaining: 3/6
[08/20/2024 22:48]  System: Players cannot commit aggressive actions in that location.
[08/20/2024 22:48]  System: Opening door...
[08/20/2024 22:48]  You see: a headless corpse
[08/20/2024 22:48]  You see: a mongbat corpse
[08/20/2024 22:48]  System: Players cannot commit aggressive actions in that location.
[08/20/2024 22:48]  You see: a mongbat corpse
[08/20/2024 22:48]  You see: a mongbat corpse
[08/20/2024 22:48]  a headless: a headless
[08/20/2024 22:48]  a skeleton: a skeleton
[08/20/2024 22:48]  System: Players cannot commit aggressive actions in that location.
[08/20/2024 22:48]  You see: a giant bat corpse
[08/20/2024 22:48]  Liriel Baenre: [Henchman, Syn]
[08/20/2024 22:48]  Liriel Baenre: Liriel Baenre
[08/20/2024 22:48]  System: Players cannot commit aggressive actions in that location.
[08/20/2024 22:48]  System: Holy symbols remaining: 2/6
[08/20/2024 22:48]  You see: the remains of Sanja
[08/20/2024 22:48]  a headless: a headless
[08/20/2024 22:48]  System: You may not loot this corpse.
[08/20/2024 22:48]  System: Players cannot commit aggressive actions in that location.
[08/20/2024 22:48]  a mongbat: a mongbat
[08/20/2024 22:48]  System: You may not loot this corpse.
[08/20/2024 22:48]  System: Players cannot commit aggressive actions in that location.
[08/20/2024 22:48]  You see: the remains of Mattss
[08/20/2024 22:48]  System: You may not loot this corpse.
[08/20/2024 22:48]  System: Players cannot commit aggressive actions in that location.
[08/20/2024 22:48]  You see: a mongbat corpse
[08/20/2024 22:48]  Branyoli: Branyoli (Young)
[08/20/2024 22:48]  System: You may not loot this corpse.
[08/20/2024 22:48]  System: You may not loot this corpse.
[08/20/2024 22:48]  System: Opening door...
[08/20/2024 22:48]  System: Holy symbols remaining: 0/6
[08/20/2024 22:48]  System: Players cannot commit aggressive actions in that location.
[08/20/2024 22:48]  System: Players cannot commit aggressive actions in that location.
[08/20/2024 22:48]  System: Players cannot commit aggressive actions in that location.
[08/20/2024 22:48]  System: Players cannot commit aggressive actions in that location.
[08/20/2024 22:48]  You see: a mongbat corpse
[08/20/2024 22:48]  System: Players cannot commit aggressive actions in that location.
[08/20/2024 22:48]  System: Players cannot commit aggressive actions in that location.
[08/20/2024 22:48]  System: Players cannot commit aggressive actions in that location.
[08/20/2024 22:48]  You see: a mongbat corpse
[08/20/2024 22:48]  You see: a mongbat corpse
[08/20/2024 22:48]  a mongbat: a mongbat
[08/20/2024 22:48]  System: Players cannot commit aggressive actions in that location.
[08/20/2024 22:48]  System: Players cannot commit aggressive actions in that location.
[08/20/2024 22:48]  You see: a giant rat corpse
[08/20/2024 22:48]  System: You may not loot this corpse.
[08/20/2024 22:48]  System: Players cannot commit aggressive actions in that location.
[08/20/2024 22:48]  System: Players cannot commit aggressive actions in that location.
[08/20/2024 22:48]  You see: a corpser corpse
[08/20/2024 22:48]  You see: a giant frog corpse
[08/20/2024 22:48]  You see: a colossal frog corpse
[08/20/2024 22:48]  You see: a headless corpse
[08/20/2024 22:48]  System: You may not loot this corpse.
[08/20/2024 22:48]  System: Players cannot commit aggressive actions in that location.
[08/20/2024 22:48]  System: Players cannot commit aggressive actions in that location.
[08/20/2024 22:48]  System: Opening door...
[08/20/2024 22:48]  You see: a giant frog corpse
[08/20/2024 22:48]  a mongbat: a mongbat
[08/20/2024 22:48]  System: You may not loot this corpse.
[08/20/2024 22:48]  System: Players cannot commit aggressive actions in that location.
[08/20/2024 22:48]  System: Players cannot commit aggressive actions in that location.
[08/20/2024 22:48]  System: Players cannot commit aggressive actions in that location.
[08/20/2024 22:48]  System: You may not loot this corpse.
[08/20/2024 22:48]  System: Players cannot commit aggressive actions in that location.
[08/20/2024 22:48]  You see: a scorpion corpse
[08/20/2024 22:48]  System: You may not loot this corpse.
[08/20/2024 22:48]  System: Players cannot commit aggressive actions in that location.
[08/20/2024 22:48]  You see: a mongbat corpse
[08/20/2024 22:48]  You see: a rotting corpse
[08/20/2024 22:48]  Sir Digsalot: [Loyal, NKB]
[08/20/2024 22:48]  Sir Digsalot: Sir Digsalot
[08/20/2024 22:48]  Tessie Gatherer: Tessie Gatherer (Young)
[08/20/2024 22:48]  Ripper: [DTF]
[08/20/2024 22:48]  Ripper: Ripper
[08/20/2024 22:48]  oppla: oppla (Young)
[08/20/2024 22:48]  a horse: (tame)
[08/20/2024 22:48]  a horse: a horse
[08/20/2024 22:48]  Krogu: Krogu (Young)
[08/20/2024 22:48]  FastandCurious: FastandCurious (Young)
[08/20/2024 22:48]  IronBrew: IronBrew (Young)
[08/20/2024 22:48]  Ailiin: That is out of my line of sight.
[08/20/2024 22:48]  System: Players cannot commit aggressive actions in that location.
[08/20/2024 22:48]  System: Players cannot commit aggressive actions in that location.
[08/20/2024 22:48]  You see: a mongbat corpse
[08/20/2024 22:48]  You see: a mongbat corpse
[08/20/2024 22:48]  You see: a mongbat corpse
[08/20/2024 22:48]  You see: a mongbat corpse
[08/20/2024 22:48]  a gravebug: (bonded)
[08/20/2024 22:48]  a gravebug: a gravebug
[08/20/2024 22:48]  Warner the Watch: [Knight, Sir.]
[08/20/2024 22:48]  Warner the Watch: Warner the Watch
[08/20/2024 22:48]  Mattss: Mattss
[08/20/2024 22:48]  LeArke: LeArke
[08/20/2024 22:48]  Twiglett: Twiglett (Young)
[08/20/2024 22:48]  System: Players cannot commit aggressive actions in that location.
[08/20/2024 22:48]  System: Players cannot commit aggressive actions in that location.
[08/20/2024 22:48]  System: Players cannot commit aggressive actions in that location.
[08/20/2024 22:48]  You see: a giant rat corpse
[08/20/2024 22:48]  Remi Locke: Remi Locke
[08/20/2024 22:48]  an undead miner: an undead miner (Young)
[08/20/2024 22:48]  Chicco Gatto: Alchemist
[08/20/2024 22:48]  Chicco Gatto: [Normal Progressing, -_-]
[08/20/2024 22:48]  Chicco Gatto: Lord Chicco Gatto
[08/20/2024 22:48]  System: Players cannot commit aggressive actions in that location.
[08/20/2024 22:48]  System: Players cannot commit aggressive actions in that location.
[08/20/2024 22:48]  System: Players cannot commit aggressive actions in that location.
[08/20/2024 22:48]  Voltio: Voltio
[08/20/2024 22:48]  FrancisZhou: FrancisZhou
[08/20/2024 22:48]  Pierre Pressiur: Pierre Pressiur
[08/20/2024 22:48]  Zook Beren: Zook Beren (Young)
[08/20/2024 22:48]  Apex Apox Aprix: Apex Apox Aprix (Young)
[08/20/2024 22:48]  Chimmy: Transmuter
[08/20/2024 22:48]  Chimmy: Chimmy
[08/20/2024 22:48]  Rolen: Rolen
[08/20/2024 22:48]  BukakkeSaka: Legendary Scribe
[08/20/2024 22:48]  BukakkeSaka: [The Tavern], [tT]
[08/20/2024 22:48]  BukakkeSaka: BukakkeSaka
[08/20/2024 22:48]  System: Players cannot commit aggressive actions in that location.
[08/20/2024 22:48]  System: Players cannot commit aggressive actions in that location.
[08/20/2024 22:48]  System: Players cannot commit aggressive actions in that location.
[08/20/2024 22:48]  System: Players cannot commit aggressive actions in that location.
[08/20/2024 22:48]  System: Players cannot commit aggressive actions in that location.
[08/20/2024 22:48]  a mongbat: a mongbat
[08/20/2024 22:48]  You see: a giant rat corpse
[08/20/2024 22:48]  You see: a wounded harpy corpse
[08/20/2024 22:48]  a giant rat: a giant rat
[08/20/2024 22:48]  Mrcrowelll: Mrcrowelll (Young)
[08/20/2024 22:48]  a wounded harpy: a wounded harpy
[08/20/2024 22:48]  You see: a giant rat corpse
[08/20/2024 22:48]  You see: a mongbat corpse
[08/20/2024 22:48]  System: Players cannot commit aggressive actions in that location.
[08/20/2024 22:48]  You see: the remains of Llewbach
[08/20/2024 22:48]  System: Players cannot commit aggressive actions in that location.
[08/20/2024 22:48]  oppla: An Lor Xen
[08/20/2024 22:48]  IronBrew: In Vas Mani
[08/20/2024 22:48]  Tessie Gatherer: An Lor Xen
[08/20/2024 22:48]  UlfrikStabson: UlfrikStabson (Young)
[08/20/2024 22:48]  System: You are now under the protection of the town guards.
[08/20/2024 22:48]  a hind: a hind
[08/20/2024 22:48]  an eagle: an eagle
[08/20/2024 22:48]  a pack llama: (tame)
[08/20/2024 22:48]  a pack llama: [0/2000 stones]
[08/20/2024 22:48]  a pack llama: a pack llama
[08/20/2024 22:48]  Johnny Tradesman: Johnny Tradesman
[08/20/2024 22:48]  Devil of Avadon: Weaponmaster
[08/20/2024 22:48]  Devil of Avadon: Devil of Avadon
[08/20/2024 22:48]  Passaconaway: Passaconaway (Young)
[08/20/2024 22:48]  Zachariah: Zachariah the guard
[08/20/2024 22:48]  Cyllia: Cyllia
[08/20/2024 22:48]  Oliver Ore Smack: Oliver Ore Smack
[08/20/2024 22:48]  a colossal frog: (tame)
[08/20/2024 22:48]  a colossal frog: a colossal frog
[08/20/2024 22:48]  a familiar: (tame)
[08/20/2024 22:48]  a familiar: a familiar
[08/20/2024 22:48]  a guar: (tame)
[08/20/2024 22:48]  a guar: a guar
[08/20/2024 22:48]  a guar: (tame)
[08/20/2024 22:48]  a guar: a guar
[08/20/2024 22:48]  Kflow: [Book Worm, CtS]
[08/20/2024 22:48]  Kflow: Kflow
[08/20/2024 22:48]  Mappen Dalk: [Loyal, NKB]
[08/20/2024 22:48]  Mappen Dalk: Mappen Dalk
[08/20/2024 22:48]  Dark Dalk: [Loyal, NKB]
[08/20/2024 22:48]  Dark Dalk: Dark Dalk
[08/20/2024 22:48]  a forest ostard: (bonded)
[08/20/2024 22:48]  a forest ostard: a forest ostard
[08/20/2024 22:48]  Kflow: Please contact Trevek on Discord for more information! We hope to hear from you!
[08/20/2024 22:48]  Kflow: [CtS] The Council of the Sage, is recruiting new members!
[08/20/2024 22:48]  Marti: Marti the healer
[08/20/2024 22:48]  Billie Zizz: Billie Zizz (Young)
[08/20/2024 22:48]  Dusty: Dusty the cook
[08/20/2024 22:48]  Rumsla: Rumsla (Young)
[08/20/2024 22:48]  Giles: Giles the thief
[08/20/2024 22:48]  Kflow: We can help you start your life in the Outlands!
[08/20/2024 22:48]  You see: gold coin : 125
[08/20/2024 22:48]  Skimbeezee: [The Night Bard, CFC]
[08/20/2024 22:48]  Skimbeezee: Skimbeezee
[08/20/2024 22:49]  System: Max holy symbols earned (6/6)
[08/20/2024 22:49]  Skimbeezee: I ban thee Guards Bank Room
[08/20/2024 22:49]  Kflow: Our spacious guild hall offers a safe place to level your skills and restock!
[08/20/2024 22:49]  Branyoli: Branyoli (Young)
[08/20/2024 22:49]  Kflow: Everything you need to drop your loot off and get back to farming!
[08/20/2024 22:49]  Natharo: Natharo
[08/20/2024 22:49]  Kflow: You can even access your room from our steward, if need be!
[08/20/2024 22:49]  Kflow: Get accustomed to Outlands and grow with helpful tips and tricks from new players just like you!
[08/20/2024 22:49]  System: Juliuz has completed the achievement: Humanoid Slayer (Advanced).
[08/20/2024 22:49]  Kflow: Or, if you've been in outlands a while, consider joining us help the influx of new players grow today!
[08/20/2024 22:49]  Kflow: Please contact Trevek on Discord for more information! We hope to hear from you!
[08/20/2024 22:49]  System: What do you wish to pacify? (you may target yourself for an area effect or the ground for a group effect)
[08/20/2024 22:49]  System: You cannot perform area discordance while in a guarded area.
[08/20/2024 22:49]  System: What do you wish to pacify? (you may target yourself for an area effect or the ground for a group effect)
[08/20/2024 22:49]  System: You cannot perform area discordance while in a guarded area.
[08/20/2024 22:49]  Kflow: [CtS] The Council of the Sage, is recruiting new members!
[08/20/2024 22:49]  System: What do you wish to pacify? (you may target yourself for an area effect or the ground for a group effect)
[08/20/2024 22:49]  System: You cannot perform area discordance while in a guarded area.
[08/20/2024 22:50]  Kflow: We can help you start your life in the Outlands!
[08/20/2024 22:50]  System: What do you wish to pacify? (you may target yourself for an area effect or the ground for a group effect)
[08/20/2024 22:50]  System: You cannot perform area discordance while in a guarded area.
[08/20/2024 22:50]  Kflow: Our spacious guild hall offers a safe place to level your skills and restock!
[08/20/2024 22:50]  Mrcrowelll: Mrcrowelll (Young)
[08/20/2024 22:50]  System: What do you wish to pacify? (you may target yourself for an area effect or the ground for a group effect)
[08/20/2024 22:50]  System: You cannot perform area discordance while in a guarded area.
